##TITLE=BS-000004 ATR-FTIR spectrum
##JCAMP-DX=5.01
##DATA TYPE=INFRARED SPECTRUM
##ORIGIN=MIT DMSE Breakerspace
##OWNER=MIT DMSE Breakerspace
##SPECTROMETER/DATA SYSTEM=Nicolet iS5
##$SAMPLING MODE=ATR
##RESOLUTION=1
##$SAMPLE SCANS=32
##$BACKGROUND SCANS=32
##$SOURCE FORMAT=Thermo/Nicolet OMNIC SPA
##XUNITS=1/CM
##YUNITS=ABSORBANCE
##FIRSTX=400.03631591796875
##LASTX=4000.0009765625
##FIRSTY=-0.000192333639
##MINX=400.03631591796875
##MAXX=4000.0009765625
##MINY=-0.00617331965
##MAXY=0.0543855801
##XFACTOR=1
##YFACTOR=1
##NPOINTS=29869
##DELTAX=0.12052915028272838
##XYDATA=(X++(Y..Y))
400.03631591796875 -0.000192333639 0.00185565453 0.0041471459 0.00621974887 0.00740689831 0.00717032701
400.75949081966513 0.00540441601 0.0024528685 -0.000931194052 -0.00378959137 -0.00506618479 -0.00398501521
401.48266572136151 -0.000219291964 0.00602124864 0.0140388245 0.0228377692 0.0312857106 0.0383819938
402.20584062305784 0.0433392674 0.0456849709 0.0453140885 0.0424215533 0.0374548174 0.0309619308
402.92901552475422 0.0236526597 0.0163099132 0.00968193449 0.00445330562 0.0010575999 -0.000422717101
403.6521904264506 -0.000236115244 0.00113346917 0.00310783391 0.0051298039 0.00683949189 0.00806739181
404.37536532814698 0.00880824309 0.00912988931 0.00906935707 0.00863255281 0.00783997495 0.00679926993
405.09854022984337 0.00581091736 0.0053240736 0.00585255912 0.0077924747 0.0112276226 0.0158316791
405.82171513153969 0.0209189765 0.025664188 0.0292795785 0.0313195735 0.0317652375 0.0309478752
406.54489003323607 0.0293590184 0.0274383668 0.0254600085 0.0234828219 0.0214429852 0.0192576218
407.26806493493245 0.0169535354 0.0146984868 0.0127658313 0.0114284493 0.0108697992 0.0111202244
407.99123983662884 0.0120855868 0.0135887908 0.0154426442 0.0175118968 0.0196722094 0.0217969138
408.71441473832522 0.0237525981 0.0253651906 0.0264873635 0.0270545986 0.0270951539 0.0267251469
409.43758964002154 0.0261011962 0.0253542662 0.0245409142 0.0236585028 0.0226507261 0.0214592759
410.16076454171792 0.0200526305 0.0184148382 0.0165436007 0.0144457854 0.0121564567 0.00979294255
410.88393944341431 0.00760846119 0.00599208754 0.0053634881 0.00610336661 0.00835031923 0.0119157517
411.60711434511069 0.0162180346 0.0204161927 0.0236310363 0.0251564477 0.0247154795 0.0224849451
412.33028924680707 0.0190038122 0.0149321659 0.0108830146 0.00729582412 0.00436005276 0.00212387484
413.05346414850339 0.000608667906 -0.000104260303 0.000174883535 0.0016873111 0.00459479634 0.00889687613
413.77663905019978 0.014344574 0.0204762779 0.0266515091 0.0322143175 0.0365825668 0.0393015742
414.49981395189616 0.0401271209 0.0390470922 0.0363070108 0.032370612 0.0278689321 0.0235243049
415.22298885359254 0.0199667923 0.0176655408 0.016803829 0.0172257312 0.0184561498 0.0198230129
415.94616375528892 0.0206917841 0.020539498 0.0191116203 0.0164194293 0.0127053699 0.00837396458
416.66933865698525 0.00389863551 -0.000207800113 -0.00348263397 -0.00555578014 -0.00617331965 -0.0052774353
417.39251355868163 -0.00305666798 2.41879161E-06 0.00323620159 0.00589930965 0.00735004339 0.0072434647
418.11568846037801 0.0055928342 0.00282900035 -0.000299097359 -0.00279679871 -0.00378696388 -0.00287603308
418.83886336207439 -0.000264428527 0.00344839506 0.00765024172 0.0118565327 0.0157780387 0.0192602202
419.56203826377077 0.0221968796 0.0245540962 0.0264099967 0.0279629547 0.0294273384 0.0309369173
420.2852131654671 0.0324623995 0.0338416845 0.0348419398 0.0352372527 0.0349104442 0.0338783972
421.00838806716348 0.0323067158 0.0304516926 0.0286068954 0.0270005073 0.0257453248 0.0248615183
421.73156296885986 0.0243112594 0.0240489822 0.024048036 0.024272155 0.0246526655 0.0250440035
422.45473787055624 0.0252433885 0.0250402484 0.0243350193 0.023240583 0.0221498758 0.0216128957
423.17791277225263 0.0220460873 0.0235465169 0.0258443058 0.0284661725 0.0308973882 0.0327576064
423.90108767394895 0.0338841304 0.0343154334 0.034256883 0.0339512303 0.0336005054 0.0332697406
424.62426257564533 0.0328925103 0.0323259532 0.031452354 0.0302553028 0.0288702771 0.0275384039
425.34743747734171 0.0265179686 0.025991112 0.026000293 0.0264739096 0.027301304 0.0283896551
426.0706123790381 0.0296787303 0.0311196595 0.0326428227 0.0341069326 0.0353058241 0.0360273831
426.79378728073448 0.0360892713 0.0354326367 0.0341507345 0.0324885026 0.0307774749 0.029345654
427.5169621824308 0.0284509584 0.0282000657 0.0285433047 0.0292911697 0.0302032623 0.0310450234
428.24013708412718 0.0316519253 0.0319811404 0.0321125202 0.0322298743 0.0325545669 0.0332958885
428.96331198582357 0.0345616378 0.0363119841 0.0383338183 0.0402853079 0.0417979658 0.0425403416
429.68648688751995 0.0423366912 0.041215308 0.0394016989 0.0372445509 0.035114985 0.0333238654
430.40966178921633 0.0320226587 0.0312040653 0.0307239126 0.0303822868 0.0299911164 0.029443508
431.13283669091265 0.0287492927 0.0280181561 0.0274084732 0.0270589013 0.0270562563 0.0274157077
431.85601159260904 0.0280920621 0.0290119462 0.03009771 0.0312930085 0.032556314 0.0338500291
432.57918649430542 0.035124436 0.0363039114 0.0372954197 0.0380089395 0.0383899212 0.0384428054
433.3023613960018 0.0382421538 0.0379250832 0.037639603 0.0375214629 0.0376532264 0.0380420685
434.02553629769818 0.0386286639 0.0393153578 0.0399984196 0.0405831896 0.0409952402 0.04117731
434.74871119939451 0.0410755016 0.0406506434 0.0398916192 0.0388398543 0.0376002938 0.0363209173
435.47188610109089 0.0351791531 0.0343197025 0.033815071 0.0336405672 0.0336769447 0.0337308347
436.19506100278727 0.0336091705 0.0332080014 0.0325547457 0.0318117589 0.0311798211 0.0308194105
436.91823590448365 0.0307789333 0.0310003608 0.0313584656 0.0317362547 0.0320735611 0.0323843174
437.64141080618003 0.032742992 0.0332310721 0.0338847749 0.0346597768 0.0354424529 0.0360859223
438.36458570787636 0.0364898294 0.0366385505 0.0366158746 0.0365632102 0.0366224349 0.036860425
439.08776060957274 0.0372355282 0.0375992097 0.0377491377 0.0375194736 0.0368308499 0.0357373208
439.81093551126912 0.034405522 0.0330814421 0.0320108496 0.031373173 0.0312650912 0.0316768363
440.5341104129655 0.0325176045 0.0336315818 0.0348407179 0.035964638 0.0368355028 0.0373318531
441.25728531466189 0.0373874977 0.037008334 0.0362732224 0.0353363007 0.0343940072 0.033627715
441.98046021635821 0.0331772789 0.0330865532 0.0333092697 0.0337289385 0.0342117809 0.0346509106
442.70363511805459 0.0349811539 0.0351825655 0.035268195 0.0352651402 0.0351969749 0.0350753292
443.42681001975097 0.0349059552 0.0346893109 0.0344412066 0.034206368 0.0340512767 0.0340620615
444.14998492144736 0.0343228206 0.0348838754 0.0357481465 0.0368533581 0.0380762853 0.0392342247
444.87315982314374 0.0401288271 0.0405958854 0.0405415371 0.039976839 0.0390092097 0.0378182493
445.59633472484006 0.0365995094 0.0355160534 0.0346864387 0.0341635309 0.0339519121 0.0340271927
446.31950962653644 0.0343554541 0.0348950066 0.0355902016 0.0363678224 0.0371200927 0.037720155
447.04268452823283 0.0380544029 0.0380398259 0.0376573801 0.0369493105 0.036006324 0.0349452756
447.76585942992921 0.033879295 0.0329129547 0.0321290381 0.0315818638 0.031300772 0.031286601
448.48903433162559 0.0315153785 0.0319373794 0.0324946418 0.0331280343 0.0337855592 0.0344369411
449.21220923332191 0.0350634381 0.0356475674 0.0361609608 0.036550127 0.0367398299 0.0366600379
449.9353841350183 0.0362669192 0.0355744138 0.0346625745 0.0336729698 0.0327675417 0.0320819095
450.65855903671468 0.0316995047 0.031623736 0.0317927226 0.0321013145 0.0324450471 0.0327492468
451.38173393841106 0.0329788662 0.0331402645 0.0332600102 0.0333675891 0.0334783755 0.033596389
452.10490884010744 0.0337182656 0.0338439755 0.0339836925 0.0341571122 0.0343850777 0.0346840732
452.82808374180377 0.0350531302 0.0354757458 0.0359198265 0.0363465659 0.0367187336 0.037002489
453.55125864350015 0.0371716693 0.0372146964 0.0371401981 0.0369808041 0.0367922597 0.0366458334
454.27443354519653 0.0366018899 0.0366977863 0.036930766 0.0372616276 0.0376267396 0.0379669555
454.99760844689291 0.0382479802 0.0384718403 0.0386709683 0.0388817824 0.0391260535 0.0393892899
455.72078334858929 0.0396203436 0.0397424363 0.0396865234 0.0394117497 0.0389250517 0.0382825024
456.44395825028562 0.037572328 0.0369014405 0.036359068 0.0359974317 0.0358264782 0.0358207189
457.167133151982 0.0359300487 0.0361040309 0.0363095701 0.0365417302 0.0368370898 0.0372568257
457.89030805367838 0.0378540009 0.0386287719 0.0395209715 0.0404258035 0.0412285328 0.0418237224
458.61348295537476 0.0421115644 0.0420224555 0.0415290706 0.0406545736 0.0394786932 0.0381225124
459.33665785707115 0.0367322937 0.0354416966 0.0343688689 0.0336066298 0.0332129747 0.0332113989
460.05983275876747 0.0335784182 0.0342468061 0.0351021625 0.0360065028 0.0368345678 0.0374845825
460.78300766046385 0.0379067883 0.0380997583 0.0380934291 0.0379205272 0.0375944376 0.0371056944
461.50618256216023 0.0364376493 0.0356021076 0.0346683152 0.0337571949 0.0330226608 0.0326068513
462.22935746385662 0.0325839221 0.0329409763 0.0335645303 0.0342799015 0.0348915569 0.0352549702
462.952532365553 0.0353317373 0.0351931639 0.0349928588 0.0348954014 0.035036929 0.0354673304
463.67570726724932 0.0361455865 0.0369554423 0.0377505831 0.0383973755 0.0387957618 0.0388977267
464.3988821689457 0.0386993624 0.038232062 0.0375493504 0.0367254429 0.0358537175 0.0350276269
465.12205707064209 0.0343464166 0.0338948071 0.0337247849 0.0338471979 0.0342229679 0.0347691737
465.84523197233847 0.035370484 0.0359067284 0.0362796001 0.0364196338 0.0363036953 0.035949342
466.56840687403485 0.0354153104 0.034784358 0.0341472551 0.0335955322 0.0331993476 0.0330062509
467.29158177573117 0.0330382846 0.0332930274 0.0337400772 0.0343264453 0.0349867195 0.0356454477
468.01475667742756 0.0362354741 0.0367117412 0.0370531157 0.0372679085 0.0373891592 0.0374660864
468.73793157912394 0.0375521705 0.0376895443 0.0379043296 0.0382004008 0.0385661237 0.0389774591
469.46110648082032 0.0394085906 0.0398350693 0.0402299054 0.0405647457 0.0408058167 0.0409155712
470.1842813825167 0.0408644937 0.0406425297 0.0402681492 0.0397908762 0.0392835476 0.0388240591
470.90745628421303 0.0384710804 0.0382580757 0.0381855331 0.0382336155 0.0383731239 0.038581077
471.63063118590941 0.0388443843 0.0391526297 0.0394883081 0.0398168415 0.0400806069 0.0402143113
472.35380608760579 0.0401730239 0.0399583466 0.0396305099 0.0392958075 0.0390667766 0.0390114225
473.07698098930217 0.0391434915 0.0394165367 0.0397527479 0.0400639623 0.0402759649 0.0403470434
473.80015589099855 0.0402665846 0.0400517173 0.039733611 0.0393479355 0.0389182381 0.0384563468
474.52333079269488 0.0379631221 0.0374363996 0.0368782468 0.0363080576 0.0357585438 0.0352810249
475.24650569439126 0.034936551 0.0347801223 0.0348507725 0.0351579525 0.0356736816 0.0363298506
475.96968059608764 0.0370303094 0.0376770049 0.0381864011 0.038519159 0.0386831351 0.0387268923
476.69285549778397 0.0387116447 0.0386809632 0.0386475325 0.0385908186 0.0384701751 0.038249068
477.41603039948041 0.0379191153 0.0375088193 0.0370826684 0.0367194563 0.036492642 0.0364514887
478.13920530117673 0.0366085581 0.0369423106 0.0374098904 0.0379603393 0.0385353453 0.0390761271
478.86238020287311 0.0395260155 0.0398261361 0.0399321578 0.0398264267 0.0395265967 0.0390896164
479.58555510456949 0.0385997631 0.0381536931 0.0378266014 0.0376547799 0.0376230925 0.0376756303
480.30873000626582 0.0377348997 0.0377278887 0.0376145653 0.0373969972 0.0371176749 0.036839325
481.03190490796226 0.0366293229 0.0365320332 0.0365584902 0.0366852023 0.0368630253 0.0370354317
481.75507980965858 0.0371454656 0.0371532962 0.0370444544 0.0368291549 0.0365434214 0.0362395085
482.47825471135496 0.0359807275 0.0358226635 0.035803806 0.0359352306 0.0361961834 0.0365373679
483.20142961305135 0.0368908346 0.0371922068 0.0373888351 0.0374525078 0.0373830944 0.0372066833
483.92460451474767 0.0369636342 0.0366915129 0.0364187323 0.0361558832 0.0359021574 0.0356571376
484.64777941644411 0.0354268514 0.0352282003 0.0350864977 0.0350210182 0.0350397304 0.035130363
485.37095431814043 0.0352632366 0.0353991687 0.0355028212 0.0355546735 0.0355595611 0.0355451405
486.09412921983682 0.035552837 0.035629008 0.0358135216 0.0361263566 0.036569301 0.0371230543
486.8173041215332 0.0377500057 0.0383925252 0.0389811546 0.0394436792 0.0397140086 0.0397539102
487.54047902322952 0.0395616889 0.039179571 0.0386804193 0.0381502584 0.0376713313 0.0372940488
488.26365392492596 0.0370357931 0.036885459 0.0368223041 0.0368328691 0.0369279534 0.0371369496
488.98682882662229 0.0374943689 0.0380163193 0.038680926 0.0394191146 0.0401287191 0.0407054797
489.71000372831867 0.0410611182 0.0411552005 0.0409949124 0.0406251363 0.0401078239 0.0395046771
490.43317863001505 0.0388712361 0.0382528678 0.0376962274 0.0372541174 0.0369794331 0.0369163007
491.15635353171137 0.0370799266 0.037443947 0.0379360393 0.0384498648 0.0388824344 0.0391524136
491.87952843340781 0.0392310321 0.0391434208 0.0389537551 0.0387327261 0.0385278873 0.0383542664
492.60270333510414 0.0381939597 0.0380199328 0.0378135853 0.0375825539 0.0373629443 0.0372107625
493.32587823680052 0.037180081 0.0373074077 0.0375943668 0.0380078182 0.0384835713 0.0389396921
494.0490531384969 0.0392989293 0.0394967645 0.0394980721 0.0393053479 0.0389614366 0.0385410674
494.77222804019323 0.0381292403 0.0378111303 0.0376415178 0.0376348719 0.0377620794 0.0379626155
495.49540294188967 0.0381645858 0.0383066051 0.0383587554 0.0383250266 0.0382366553 0.0381303988
496.21857784358599 0.0380360298 0.0379647128 0.0379083417 0.0378500633 0.0377755985 0.037681412
496.94175274528237 0.0375764817 0.0374781862 0.0374043621 0.037372224 0.0373957343 0.0374889895
497.66492764697875 0.037668258 0.037949346 0.0383376554 0.038819205 0.039356567 0.0398884229
498.38810254867508 0.0403416976 0.0406559557 0.0407955162 0.0407618135 0.0405867919 0.0403202809
499.11127745037146 0.040012259 0.0396959633 0.0393870771 0.039090883 0.0388122834 0.0385645665
499.83445235206784 0.0383708104 0.0382545665 0.0382306501 0.0382958576 0.0384302437 0.0386028774
500.55762725376422 0.0387868136 0.0389672741 0.0391414613 0.0393145233 0.0394866765 0.039645575
501.28080215546061 0.0397685803 0.0398275517 0.0398012958 0.0396876484 0.039507471 0.039300561
502.00397705715693 0.0391127467 0.0389835835 0.0389308482 0.038948752 0.0390165672 0.0391104259
502.72715195885331 0.0392118469 0.0393060744 0.0393794216 0.0394172631 0.0394086652 0.0393570773
503.45032686054969 0.0392906927 0.0392686762 0.0393630974 0.0396399461 0.0401266478 0.0407917313
504.17350176224608 0.0415417217 0.0422386639 0.0427493118 0.0429681875 0.0428546928 0.0424354002
504.89667666394246 0.0417916887 0.0410278663 0.04023863 0.0395031869 0.0388763808 0.0383993313
505.61985156563878 0.0381123833 0.0380468406 0.0382177308 0.0386053063 0.0391502753 0.0397577956
506.34302646733516 0.0403166823 0.040737614 0.0409724787 0.0410331115 0.0409782343 0.0408886299
507.06620136903155 0.0408276916 0.0408128053 0.0408183746 0.0408013761 0.0407325551 0.0406186245
507.78937627072793 0.0405051261 0.0404528268 0.0405134559 0.0406958722 0.0409552231 0.0412016101
508.51255117242431 0.0413386151 0.0412947759 0.0410512835 0.0406487137 0.0401739292 0.0397335775
509.23572607412063 0.0394154117 0.0392745547 0.0393239558 0.0395439044 0.0398927107 0.0403187908
509.95890097581702 0.0407715328 0.0411951616 0.0415364727 0.0417517088 0.0418110266 0.041712679
510.6820758775134 0.041486416 0.041190464 0.0408961661 0.0406692363 0.0405564867 0.0405726768
511.40525077920978 0.0407041311 0.0409133136 0.0411563292 0.0413865745 0.0415620282 0.041650895
512.12842568090616 0.0416295975 0.0414872169 0.041229628 0.0408822969 0.0404884666 0.0401003025
512.85160058260249 0.0397715569 0.0395403504 0.0394218341 0.0394084454 0.0394751728 0.0395960622
513.57477548429893 0.039751187 0.0399354994 0.0401541591 0.0404140577 0.0407111906 0.0410254635
514.29795038599525 0.041318316 0.0415457673 0.0416656286 0.0416515172 0.0415002331 0.0412317775
515.02112528769158 0.0408858657 0.040510729 0.0401606634 0.0398834832 0.039710559 0.0396539941
515.74430018938801 0.0396984331 0.0398065634 0.0399221294 0.0399865024 0.0399542414 0.039805945
516.46747509108434 0.039556209 0.0392536968 0.0389650613 0.0387482308 0.0386353284 0.0386248268
517.19064999278078 0.0386906341 0.0388006531 0.0389357395 0.0390994027 0.0393148139 0.0396099649
517.9138248944771 0.0399966761 0.0404581353 0.0409468822 0.0413981639 0.0417440496 0.0419382229
518.63699979617354 0.0419651195 0.04183992 0.0416022129 0.0413010046 0.0409882106 0.0407055505
519.36017469786987 0.0404814854 0.0403331146 0.0402638949 0.0402658582 0.0403186455 0.0403952226
520.08334959956619 0.0404612981 0.0404851213 0.0404447876 0.0403338075 0.040166989 0.0399794914
520.80652450126263 0.0398245752 0.0397607349 0.0398389548 0.0400960147 0.0405423008 0.0411604792
521.52969940295895 0.0419010743 0.0426915102 0.0434418991 0.0440531485 0.0444428809 0.0445528999
522.25287430465528 0.0443617739 0.0438896976 0.04319603 0.0423690937 0.041502092 0.0406870656
522.97604920635172 0.0399924591 0.0394566692 0.039092768 0.0388929062 0.0388389863 0.0389068574
523.69922410804804 0.0390710533 0.0393070169 0.0395887308 0.0398920178 0.0401973389 0.040488176
524.42239900974448 0.0407533348 0.0409842767 0.0411718823 0.0413048342 0.0413722172 0.0413656905
525.14557391144081 0.0412863195 0.0411495902 0.0409889035 0.0408477485 0.0407766998 0.0408120044
525.86874881313724 0.040959917 0.0411883853 0.0414379314 0.0416481979 0.0417769514 0.0418197811
526.59192371483357 0.041803401 0.0417749435 0.0417790301 0.0418423638 0.0419631489 0.042108424
527.31509861652989 0.0422245674 0.0422559381 0.0421675332 0.0419582203 0.041666761 0.0413561799
528.03827351822633 0.0411068611 0.0409928001 0.0410627909 0.0413385406 0.041808214 0.042432256
528.76144841992266 0.0431437679 0.043858245 0.044484213 0.0449251868 0.045106858 0.0449888706
529.48462332161898 0.0445833728 0.0439579971 0.0432291515 0.0425425321 0.0420244634 0.0417559035
530.20779822331542 0.0417433567 0.0419209599 0.0421658903 0.0423412956 0.0423486009 0.0421486944
530.93097312501175 0.0417803079 0.0413374491 0.0409436412 0.0407042056 0.0406767689 0.0408629663
531.65414802670819 0.0412141792 0.0416560397 0.0421089344 0.0425130054 0.0428339951 0.0430567563
532.37732292840451 0.0431792326 0.0432041921 0.0431373306 0.0429891124 0.0427817777 0.0425477587
533.10049783010095 0.0423226655 0.0421381034 0.0420107767 0.0419393517 0.0419094302 0.0419032983
533.82367273179727 0.0419111438 0.0419353396 0.0419866145 0.0420731939 0.0421892963 0.0423083492
534.5468476334936 0.0423884168 0.0423832312 0.0422629155 0.0420277864 0.0417119488 0.0413703211
535.27002253519004 0.0410631187 0.0408348292 0.0406980179 0.0406357236 0.0406094566 0.0405795872
535.99319743688636 0.0405186564 0.0404224582 0.0403082483 0.0402084254 0.0401550308 0.0401698612
536.71637233858269 0.040260043 0.04041766 0.0406228453 0.0408489145 0.0410665423 0.0412472598
537.43954724027913 0.0413655825 0.0414064042 0.0413685329 0.0412708335 0.0411481671 0.0410477892
538.16272214197545 0.0410168692 0.0410844982 0.0412544385 0.0414998308 0.0417705663 0.0420021974
538.88589704367189 0.0421355143 0.0421321169 0.0419798978 0.0416981988 0.0413272083 0.0409236178
539.60907194536821 0.0405437201 0.0402344875 0.0400285758 0.0399388783 0.0399584919 0.0400640741
540.33224684706465 0.0402242355 0.0404055119 0.040581625 0.0407419056 0.0408898331 0.0410407223
541.05542174876098 0.0412111171 0.0414090268 0.0416262075 0.0418385714 0.0420086235 0.0420998819
541.7785966504573 0.0420892946 0.0419735834 0.0417735949 0.0415266268 0.0412765555 0.04105784
542.50177155215374 0.0408887751 0.0407671295 0.0406766608 0.040596325 0.040510729 0.0404184237
543.22494645385007 0.0403334424 0.0402819626 0.0402916335 0.0403856561 0.0405724235 0.0408426188
543.94812135554639 0.0411668569 0.0414989553 0.0417858176 0.0419704467 0.0420063585 0.041867502
544.67129625724283 0.0415530615 0.0410920009 0.0405415744 0.0399827957 0.0395014808 0.0391748212
545.39447115893915 0.0390573144 0.0391661562 0.0394832306 0.0399607085 0.0405376107 0.0411464199
546.11764606063559 0.0417241678 0.0422217585 0.0426012985 0.0428384207 0.0429216959 0.0428514779
546.84082096233192 0.0426405184 0.0423130952 0.0419095382 0.0414790884 0.0410721526 0.0407353938
547.56399586402836 0.040495161 0.0403550789 0.0402958505 0.0402849801 0.0402900316 0.040288724
548.28717076572468 0.040276438 0.0402623676 0.040263094 0.0402886532 0.0403370447 0.040391475
549.01034566742101 0.0404265672 0.0404157676 0.0403430052 0.0402087495 0.0400310084 0.0398411341
549.73352056911745 0.0396729112 0.0395583883 0.0395175219 0.0395545773 0.0396569371 0.0397973023
550.45669547081377 0.0399351716 0.0400208719 0.0400085896 0.0398631804 0.0395747572 0.0391664803
551.17987037251009 0.0386978798 0.0382570289 0.0379336514 0.0378015861 0.0378900096 0.038172543
551.90304527420653 0.0385700352 0.0389740132 0.039284382 0.0394297093 0.0393972732 0.0392312109
552.62622017590286 0.0390209183 0.0388649665 0.0388411619 0.0389848165 0.0392781086 0.0396615118
553.34939507759918 0.0400515012 0.0403754041 0.0405853018 0.0406713113 0.0406571552 0.040586099
554.07256997929562 0.0405007266 0.0404248945 0.0403582416 0.0402782895 0.0401543416 0.0399622694
554.79574488099206 0.0396993756 0.0393899456 0.0390826911 0.0388350748 0.0386972986 0.0387020074
555.51891978268839 0.0388518125 0.0391232595 0.0394698046 0.0398384854 0.040177349 0.0404428616
556.24209468438471 0.040604692 0.0406431481 0.0405465923 0.0403139181 0.0399563871 0.0395038053
556.96526958608115 0.0390002206 0.038507428 0.0380885825 0.0377950445 0.037658032 0.0376780145
557.68844448777747 0.0378271081 0.0380570777 0.0383161232 0.0385638773 0.0387780108 0.0389566161
558.4116193894738 0.0391110405 0.0392550416 0.0393937901 0.0395206064 0.0396183133 0.0396667756
559.13479429117024 0.0396490581 0.0395591147 0.0394011922 0.039188493 0.0389382429 0.0386670567
559.85796919286656 0.0383899547 0.0381221846 0.0378775001 0.0376738235 0.0375292636 0.0374603793
560.58114409456289 0.0374786928 0.0375865251 0.0377734266 0.0380166434 0.0382859781 0.0385467522
561.30431899625933 0.0387659818 0.0389207378 0.0389984064 0.0389993154 0.0389352702 0.0388257615
562.02749389795576 0.0386937149 0.038559135 0.0384366885 0.0383345075 0.038254749 0.0381971821
562.75066879965209 0.038161438 0.0381488465 0.0381589755 0.0381878838 0.0382244624 0.0382491387
563.47384370134841 0.0382402018 0.0381795242 0.0380595736 0.0378895402 0.0376942791 0.0375074446
564.19701860304485 0.0373589694 0.0372663587 0.0372271165 0.0372226387 0.0372259617 0.0372144096
564.92019350474118 0.0371824615 0.0371433012 0.0371251814 0.037157774 0.0372611582 0.0374329314
565.6433684064375 0.037648458 0.037864957 0.0380388126 0.0381381735 0.0381531157 0.0380994678
566.36654330813394 0.0380134955 0.0379411727 0.0379193351 0.0379679687 0.0380817801 0.0382320955
567.08971820983027 0.0383730531 0.0384552591 0.0384425148 0.0383206084 0.0381037034 0.0378290229
567.81289311152659 0.0375519879 0.0373294689 0.03720643 0.0372085981 0.0373327173 0.0375489891
568.53606801322303 0.0378060304 0.0380468406 0.0382197574 0.0382865556 0.0382315889 0.0380593203
569.25924291491947 0.0377928019 0.0374633409 0.0371072441 0.0367594808 0.0364479199 0.0361976586
569.98241781661579 0.0360292159 0.0359573662 0.0359910242 0.0361290202 0.0363592468 0.0366578028
570.70559271831212 0.0369948409 0.0373386405 0.03765966 0.0379365087 0.0381578915 0.0383213349
571.42876762000856 0.0384328887 0.038502723 0.0385414995 0.0385559127 0.0385476202 0.0385115556
572.15194252170488 0.0384411402 0.0383294038 0.0381744243 0.0379822142 0.0377656557 0.0375438966
572.87511742340121 0.0373362936 0.0371613093 0.0370328724 0.0369600244 0.0369484425 0.0370002873
573.59829232509765 0.0371138491 0.0372798219 0.0374806784 0.037689507 0.0378710665 0.0379936062
574.32146722679397 0.0380359553 0.0379970782 0.0378978215 0.0377772972 0.0376793519 0.0376336761
575.0446421284903 0.0376481675 0.0377032049 0.0377643928 0.0377955139 0.0377788842 0.0377277434
575.76781703018673 0.0376854241 0.0377092399 0.0378438085 0.0380983464 0.0384351686 0.0387806892
576.49099193188317 0.0390459672 0.0391666628 0.0391180031 0.0389236733 0.0386408344 0.0383420363
577.2141668335795 0.0380886532 0.0379090272 0.0377972499 0.0377219953 0.0376479514 0.0375535041
577.93734173527582 0.037443731 0.0373455733 0.0372954197 0.0373173356 0.0374085158 0.0375351906
578.66051663697226 0.0376433991 0.0376785956 0.0376039781 0.03741863 0.0371578448 0.0368868671
579.38369153866859 0.0366743505 0.0365775228 0.0366234817 0.0368006639 0.0370604396 0.0373284929
580.10686644036491 0.0375272073 0.0375878997 0.0374727324 0.0371843018 0.0367681012 0.0363031216
580.83004134206135 0.0358779356 0.0355771109 0.0354529135 0.0355155133 0.0357333608 0.0360459238
581.55321624375767 0.0363797471 0.0366642922 0.0368542597 0.036933545 0.0369177796 0.0368424654
582.276391145454 0.0367507897 0.0366800092 0.0366488621 0.0366574414 0.0366886631 0.0367195643
582.99956604715044 0.0367267393 0.0366972089 0.0366310142 0.036541298 0.0364495777 0.0363791361
583.72274094884688 0.0363497362 0.0363709219 0.0364404246 0.0365445055 0.0366642922 0.0367812999
584.4459158505432 0.0368830077 0.0369678885 0.0370435528 0.0371216796 0.0372105837 0.0373089239
585.16909075223953 0.0374029912 0.0374718681 0.0374928899 0.037451461 0.0373474509 0.0371963605
585.89226565393597 0.0370237045 0.0368550532 0.0367080979 0.0365858823 0.0364791267 0.0363726504
586.61544055563229 0.0362565443 0.0361330919 0.0360205434 0.0359460637 0.0359387212 0.0360184163
587.33861545732861 0.0361871086 0.0364301912 0.0367182307 0.0370190516 0.0373029299 0.0375484116
588.06179035902505 0.037744876 0.0378889628 0.0379821435 0.038027674 0.0380312912 0.0379997194
588.78496526072138 0.037941426 0.0378647037 0.0377745107 0.0376701728 0.0375456661 0.0373924114
589.5081401624177 0.0372053124 0.0369894654 0.0367616452 0.0365495868 0.0363863036 0.0362972505
590.23131506411414 0.0362951942 0.0363747403 0.0365166441 0.0366933867 0.0368810594 0.0370653458
590.95448996581058 0.0372420624 0.037412636 0.0375762284 0.0377222858 0.0378301777 0.0378742479
591.67766486750691 0.0378335416 0.0377033502 0.0374996066 0.0372572951 0.0370171033 0.0368135385
592.40083976920323 0.0366667435 0.0365779884 0.0365339071 0.0365153477 0.036507383 0.0365021564
593.12401467089967 0.0365005359 0.0365071297 0.0365239605 0.0365463793 0.0365639329 0.0365629606
593.84718957259599 0.0365345217 0.0364791639 0.0364072733 0.0363355428 0.0362804271 0.0362521149
594.57036447429232 0.0362512879 0.0362704135 0.0362989791 0.0363290235 0.0363595374 0.0363956355
595.29353937598876 0.036443416 0.0365057588 0.0365769453 0.0366452932 0.0366957299 0.036717508
596.01671427768508 0.0367104039 0.0366860665 0.0366641842 0.0366647243 0.0367015004 0.036775168
596.73988917938141 0.0368744209 0.03698048 0.0370760299 0.037152756 0.0372141935 0.0372738652
597.46306408107785 0.0373487137 0.0374520719 0.0375861302 0.0377415493 0.0378988683 0.0380370766
598.18623898277417 0.0381374508 0.0381894037 0.0381922983 0.0381538756 0.0380871333 0.0380062275
598.90941388447061 0.0379257351 0.0378579423 0.0378121398 0.0377947912 0.0378070064 0.0378447101
599.63258878616693 0.0378975309 0.0379515514 0.0379928462 0.0380113646 0.0380057208 0.0379836634
600.35576368786337 0.0379605182 0.0379521661 0.0379711874 0.0380223207 0.0381012075 0.0381970368
601.0789385895597 0.0382956751 0.0383850336 0.0384566002 0.0385073945 0.0385375544 0.0385497212
601.80211349125602 0.0385470763 0.0385328457 0.0385114476 0.0384897627 0.0384757482 0.0384790823
602.52528839295246 0.0385066308 0.0385610536 0.0386378989 0.0387278721 0.0388168842 0.0388911664
603.24846329464879 0.0389404893 0.0389595516 0.0389484987 0.0389116034 0.0388543494 0.038782537
603.97163819634511 0.0387006328 0.0386113152 0.0385170616 0.0384201072 0.0383222736 0.0382252596
604.69481309804155 0.0381300002 0.038035918 0.0379424393 0.0378487259 0.0377552845 0.0376644656
605.41798799973787 0.0375805646 0.0375094339 0.0374572016 0.0374288149 0.0374259241 0.0374457873
606.14116290143431 0.0374795981 0.0375123955 0.0375260487 0.0375002213 0.0374179445 0.03727163
606.86433780313064 0.0370663218 0.0368212946 0.0365672112 0.0363429263 0.0361842252 0.0361158438
607.58751270482708 0.0361465588 0.0362656936 0.0364464447 0.0366504118 0.0368408784 0.0369875543
608.3106876065234 0.0370731764 0.0370947234 0.0370614156 0.0369890667 0.0368952714 0.0367964432
609.03386250821973 0.0367057174 0.0366318449 0.0365819894 0.036561735 0.0365752131 0.0366249941
609.75703740991617 0.0367087834 0.0368180461 0.0369360708 0.0370392576 0.0371015072 0.0370978639
610.48021231161249 0.0370141454 0.0368516631 0.0366326012 0.0363935828 0.0361830369 0.0360472165
611.20338721330882 0.0360148177 0.0360892341 0.0362441204 0.0364320651 0.0365928411 0.0366729088
611.92656211500525 0.0366420113 0.0364994891 0.0362766087 0.0360241793 0.0358036272 0.0356650129
612.64973701670158 0.0356357694 0.0357161649 0.0358823985 0.0360935554 0.0363026522 0.0364711992
613.37291191839802 0.0365737714 0.0366027541 0.0365676098 0.03649012 0.0363998152 0.0363244824
614.09608682009434 0.0362862274 0.0362957008 0.0363498069 0.0364316329 0.0365163572 0.036578171
614.81926172179078 0.0365954004 0.0365577675 0.0364682078 0.0363407284 0.0361955352 0.0360533744
615.54243662348711 0.0359309837 0.0358380638 0.0357786231 0.0357522853 0.0357582569 0.0357947387
616.26561152518343 0.0358587205 0.0359443724 0.0360414237 0.0361348204 0.0362096168 0.0362527631
616.98878642687987 0.0362578779 0.0362273715 0.0361724496 0.0361095779 0.0360558219 0.0360251144
617.71196132857619 0.0360243209 0.036052689 0.0361055806 0.0361768082 0.0362620205 0.036359068
618.43513623027252 0.0364670902 0.0365862064 0.036714334 0.0368466862 0.036974851 0.0370855555
619.15831113196896 0.0371629335 0.0371884555 0.0371439122 0.0370183289 0.0368107259 0.0365347713
619.88148603366528 0.0362176821 0.0358990952 0.0356198736 0.0354117528 0.0352899358 0.035246022
620.60466093536172 0.0352519862 0.0352684818 0.0352621228 0.0352166295 0.0351407453 0.0350632928
621.32783583705805 0.0350239649 0.0350572579 0.0351759531 0.0353654884 0.0355854183 0.0357856005
622.05101073875448 0.035918206 0.0359568633 0.0359034501 0.0357872583 0.0356536843 0.0355459712
622.77418564045081 0.0354963467 0.0355145037 0.0355891958 0.0356965587 0.0358119383 0.0359194316
623.49736054214713 0.0360145643 0.0361036733 0.0361954607 0.0362947993 0.0363977253 0.0364914164
624.22053544384357 0.0365589932 0.0365882628 0.0365743488 0.0365238152 0.0364492536 0.0363643989
624.9437103455399 0.0362784453 0.0361915715 0.0360970832 0.0359872431 0.0358599424 0.0357240438
625.66688524723622 0.0355986543 0.0355078541 0.0354738384 0.0355073139 0.0356042273 0.0357443355
626.39006014893266 0.0358998887 0.0360407755 0.0361422375 0.0361918956 0.0361890867 0.0361422375
627.11323505062899 0.0360648222 0.0359719805 0.0358776487 0.0357935876 0.0357312746 0.0357004441
627.83640995232543 0.0357087553 0.0357599482 0.0358517021 0.0359764434 0.0361207761 0.0362698361
628.55958485402175 0.0364091843 0.0365269147 0.0366151184 0.0366702043 0.0366920531 0.0366842635
629.28275975571819 0.0366544835 0.0366137139 0.036574278 0.0365489386 0.0365469567 0.036569953
630.00593465741451 0.0366127379 0.036661949 0.0367015712 0.0367157795 0.0366935655 0.0366315581
630.72910955911084 0.0365333296 0.0364076719 0.0362663418 0.0361239091 0.0359952711 0.0358971171
631.45228446080728 0.0358479246 0.0358631089 0.0359523296 0.0361128896 0.0363273658 0.0365624912
632.1754593625036 0.0367758162 0.0369283855 0.036992278 0.0369609259 0.0368481651 0.0366841219
632.89863426419993 0.0365038849 0.0363361537 0.036198955 0.036096435 0.0360223427 0.0359663665
633.62180916589637 0.0359201506 0.0358791947 0.0358420946 0.0358079448 0.0357731543 0.0357314199
634.34498406759269 0.0356766693 0.0356054865 0.0355214812 0.0354345068 0.0353595912 0.0353126153
635.06815896928913 0.035304565 0.0353399664 0.0354158133 0.0355237462 0.0356536098 0.0357961804
635.79133387098545 0.0359447338 0.0360921882 0.0362302177 0.0363489091 0.0364354178 0.0364803188
636.51450877268189 0.0364780836 0.0364304073 0.0363454856 0.0362343229 0.0361078866 0.035973493
637.23768367437822 0.0358356163 0.0356982164 0.0355677269 0.0354543887 0.0353714526 0.0353305861
637.96085857607454 0.0353377014 0.0353877731 0.0354654975 0.0355469771 0.035608869 0.035637103
638.68403347777098 0.0356301591 0.0355996601 0.0355661437 0.0355516151 0.0355713926 0.0356313474
639.40720837946731 0.0357251242 0.0358375609 0.0359480083 0.0360370316 0.0360919721 0.0361081734
640.13038328116363 0.0360886231 0.036040809 0.0359733477 0.0358936973 0.0358059667 0.0357126035
640.85355818286007 0.0356140099 0.0355096869 0.0353996381 0.0352838635 0.0351640247 0.0350437909
641.57673308455639 0.034928184 0.034824241 0.0347404554 0.0346851833 0.0346666314 0.0346917883
642.29990798625283 0.0347645059 0.0348846652 0.0350466259 0.0352392681 0.0354453288 0.0356454104
643.02308288794916 0.0358221233 0.0359619744 0.0360583775 0.036111448 0.0361264646 0.0361123122
643.7462577896456 0.0360777862 0.0360302255 0.0359728448 0.0359026976 0.0358124077 0.0356940068
644.46943269134192 0.0355431288 0.0353646241 0.035172075 0.0349873304 0.0348347574 0.0347344987
645.19260759303825 0.0346983559 0.0347255953 0.0348033831 0.0349063165 0.0350047126 0.0350745022
645.91578249473469 0.0351024866 0.0350919962 0.0350577608 0.0350200497 0.0349962004 0.0349954478
646.63895739643101 0.0350188985 0.0350607783 0.0351105332 0.0351545401 0.0351802297 0.035177175
647.36213229812734 0.0351394862 0.0350678936 0.0349693373 0.0348559394 0.0347415321 0.0346402526
648.08530719982377 0.0345626771 0.0345138125 0.034492828 0.0344931856 0.0345072113 0.0345289148
648.8084821015201 0.0345591232 0.0346058048 0.0346801952 0.0347892381 0.0349305533 0.0350910611
649.53165700321654 0.0352497958 0.0353846475 0.0354764648 0.0355168432 0.0355114862 0.0354801305
650.25483190491286 0.0354486741 0.0354419127 0.0354719348 0.0355338864 0.0356107727 0.0356809832
650.9780068066093 0.0357288271 0.0357481465 0.0357441902 0.0357300863 0.0357247293 0.0357449464
651.70118170830563 0.0358000286 0.0358866081 0.0359872803 0.0360751189 0.0361198038 0.0360985249
652.42435661000195 0.0359994099 0.0358232372 0.0355829746 0.0353024788 0.0350165628 0.0347633921
653.14753151169839 0.0345838107 0.0345092192 0.0345521271 0.0347024128 0.0349301584 0.0351969749
653.87070641339471 0.0354644917 0.0357028916 0.0358930491 0.036023207 0.0360886231 0.0360915735
654.59388131509104 0.0360417813 0.0359566845 0.0358588994 0.0357707404 0.0357051566 0.0356608033
655.31705621678748 0.0356236845 0.0355757102 0.0355009846 0.035394676 0.0352646746 0.0351320505
656.04023111848392 0.0350259393 0.0349739715 0.0349955559 0.0350919217 0.0352461301 0.0354256295
656.76340602018013 0.0355965309 0.0357328951 0.0358188115 0.0358491838 0.0358253233 0.0357523933
657.48658092187657 0.035640195 0.0355043299 0.0353690088 0.0352631621 0.0352148302 0.0352416374
658.209755823573 0.0353416204 0.0354939029 0.0356644727 0.0358202867 0.0359345488 0.035994336
658.93293072526933 0.036000777 0.0359665826 0.0359110832 0.0358552635 0.0358184166 0.0358122997
659.65610562696565 0.035841804 0.0359037407 0.0359902307 0.0360897742 0.0361864232 0.03626303
660.37928052866209 0.0362999141 0.0362786613 0.0361875035 0.0360256173 0.035806831 0.0355561823
661.10245543035842 0.0353069007 0.0350878648 0.0349150412 0.034790352 0.0347034149 0.0346398242
661.82563033205474 0.0345880091 0.034543518 0.034508504 0.034490101 0.0344932936 0.0345173627
662.54880523375118 0.034553133 0.0345854945 0.034598235 0.0345814414 0.0345353372 0.0344702266
663.27198013544762 0.0344032981 0.0343517624 0.0343303867 0.0343474559 0.0344035476 0.0344927907
663.99515503714383 0.0346049815 0.034727823 0.0348475762 0.0349523872 0.0350313261 0.0350758322
664.71832993884027 0.0350811109 0.0350463763 0.0349772386 0.0348853469 0.0347867273 0.0347019434
665.44150484053671 0.0346489735 0.0346409343 0.0346832089 0.0347722955 0.034896154 0.0350383669
666.16467974223303 0.0351813808 0.0353076905 0.0354011469 0.035448458 0.0354344361 0.0353422314
666.88785464392936 0.0351485759 0.0348216556 0.034316726 0.0335706882 0.0325167105 0.0311288089
667.6110295456258 0.0295908619 0.0285878908 0.0290449969 0.0308048613 0.0326835439 0.0340194181
668.33420444732212 0.0348150134 0.0352617279 0.0355204381 0.035688933 0.0358146727 0.0359129161
669.05737934901845 0.0359804034 0.036006432 0.0359822772 0.0359046385 0.0357800983 0.0356235057
669.78055425071489 0.0354568325 0.0353025869 0.0351802669 0.0351045318 0.0350823663 0.0351149142
670.50372915241132 0.0351970457 0.0353189036 0.0354655348 0.0356176086 0.0357564576 0.0358653404
671.22690405410754 0.0359343328 0.0359624773 0.0359570421 0.0359294713 0.0358903892 0.0358470604
671.95007895580397 0.0358026549 0.0357568562 0.0357096195 0.0356627852 0.0356209539 0.0355917849
672.67325385750041 0.0355817527 0.0355928652 0.0356205218 0.0356541499 0.0356808417 0.0356901921
673.39642875919674 0.035677854 0.0356469192 0.03560628 0.0355678685 0.0355440639 0.0355438106
674.11960366089306 0.0355698131 0.0356165655 0.0356712714 0.0357188992 0.0357447304 0.0357397646
674.8427785625895 0.0357015617 0.0356317796 0.0355357938 0.035420198 0.0352949314 0.0351728648
675.56595346428583 0.035070084 0.0350056104 0.0349939018 0.0350396596 0.0351319425 0.0352463834
676.28912836598215 0.0353500657 0.0354134776 0.0354189426 0.0353615694 0.0352504775 0.0351030938
677.01230326767859 0.0349445231 0.034801729 0.0346979238 0.0346494764 0.0346600264 0.0347208939
677.73547816937503 0.0348133259 0.0349161178 0.03501096 0.0350839831 0.0351278819 0.0351399183
678.45865307107124 0.0351228528 0.0350848474 0.0350400917 0.0350071192 0.0350022353 0.0350334831
679.18182797276768 0.0350931101 0.0351612233 0.0352110229 0.0352223776 0.0351900384 0.035124436
679.90500287446412 0.0350477397 0.0349865742 0.034966249 0.0350007266 0.0350876488 0.0352045186
680.62817777616044 0.0353157073 0.0353846475 0.0353877395 0.0353248715 0.0352156945 0.0350904875
681.35135267785677 0.0349765904 0.0348943211 0.0348536782 0.0348557271 0.0348945744 0.0349593163
682.07452757955321 0.0350385085 0.0351195484 0.0351918004 0.0352492556 0.0352887139 0.0353097394
682.79770248124953 0.0353123993 0.0352960452 0.0352583826 0.0351973698 0.035112042 0.0350052156
683.52087738294586 0.0348855257 0.0347687416 0.0346736275 0.0346181504 0.0346120857 0.0346529558
684.24405228464229 0.034727715 0.0348188542 0.0349109136 0.03499268 0.0350594521 0.0351107456
684.96722718633873 0.0351486839 0.0351763479 0.0351963975 0.0352113806 0.0352241732 0.035237398
685.69040208803494 0.0352534615 0.0352729037 0.0352933891 0.0353095978 0.0353152044 0.0353035927
686.41357698973138 0.0352692716 0.0352101959 0.035127379 0.0350249335 0.0349091515 0.0347870849
687.13675189142782 0.0346665941 0.0345553234 0.0344617963 0.0343951546 0.0343635939 0.0343727767
687.85992679312415 0.0344240293 0.034512125 0.0346250758 0.0347462706 0.0348571241 0.0349398889
688.58310169482047 0.0349846706 0.0349905267 0.0349667147 0.0349277519 0.0348892584 0.0348641984
689.30627659651691 0.0348599963 0.0348808207 0.0349269621 0.0349950157 0.0350757241 0.0351537131
690.02945149821323 0.0352099463 0.0352251083 0.0351881348 0.0351018012 0.0349845663 0.0348630846
690.75262639990956 0.0347630717 0.0347020887 0.0346846469 0.0347033814 0.0347437598 0.0347901359
691.475801301606 0.0348304138 0.0348585993 0.0348742865 0.0348803923 0.0348785967 0.0348669291
692.19897620330244 0.0348408632 0.0347965248 0.0347343534 0.0346610658 0.0345886163 0.0345294178
692.92215110499865 0.0344944783 0.0344884507 0.0345088616 0.0345477164 0.0345958285 0.0346470736
693.64532600669509 0.0347023755 0.0347672701 0.0348494425 0.03495235 0.0350715555 0.0351945646
694.36850090839152 0.035302911 0.0353781767 0.0354054235 0.0353788249 0.0353034139 0.0351953916
695.09167581008785 0.0350779146 0.0349726044 0.0348944664 0.034846928 0.0348217264 0.0348037034
695.81485071178417 0.0347762443 0.0347272493 0.0346506238 0.0345478579 0.0344252847 0.0342925228
696.53802561348061 0.0341579393 0.0340273716 0.033904478 0.0337922201 0.0336948857 0.0336191952
697.26120051517694 0.0335726216 0.0335606635 0.0335838608 0.033636272 0.0337052681 0.0337756388
697.98437541687326 0.0338349491 0.0338768587 0.033904586 0.0339286588 0.0339624807 0.034014903
698.7075503185697 0.0340857171 0.034164317 0.0342347249 0.0342796482 0.0342874303 0.0342546962
699.43072522026614 0.0341871157 0.0340964682 0.0339955911 0.0338959508 0.033804968 0.0337262154
700.15390012196235 0.0336625166 0.0336175486 0.0335965678 0.033605054 0.0336459391 0.033717338
700.87707502365879 0.0338114873 0.0339158699 0.0340168364 0.0341014862 0.0341617726 0.0341961868
701.60024992535523 0.0342095569 0.0342100598 0.0342083387 0.0342141837 0.0342348702 0.0342750959
702.32342482705155 0.0343368798 0.0344185047 0.0345153548 0.0346188657 0.0347184911 0.0348027013
703.04659972874788 0.0348617584 0.0348909125 0.0348911285 0.0348685794 0.0348323546 0.0347912833
703.76977463044432 0.0347501114 0.0347083695 0.0346605293 0.0345997401 0.0345200188 0.0344209448
704.49294953214064 0.0343083367 0.034193676 0.0340919159 0.0340155475 0.0339719057 0.0339610502
705.21612443383697 0.0339765623 0.0340084881 0.0340469033 0.0340856425 0.0341220237 0.0341568254
705.93929933553341 0.034190271 0.0342207067 0.0342425071 0.0342475623 0.0342274122 0.0341776162
706.66247423722973 0.0340996943 0.0340028256 0.0339007899 0.0338088721 0.0337408632 0.0337049812
707.38564913892606 0.0337044448 0.0337380692 0.0338026397 0.0338932313 0.034004584 0.0341303758
708.10882404062249 0.0342620797 0.0343897417 0.0345039479 0.0345969051 0.0346658751 0.0347139686
708.83199894231893 0.034749575 0.0347830653 0.034822695 0.0348717012 0.0349260308 0.0349749029
709.55517384401526 0.0350030251 0.0349956974 0.0349415429 0.0348351188 0.0346790478 0.034483429
710.27834874571158 0.0342646614 0.034042567 0.0338398926 0.033677984 0.0335735865 0.0335369334
711.00152364740802 0.0335687175 0.0336606912 0.0337963738 0.0339558162 0.0341197997 0.0342712253
711.72469854910435 0.034398023 0.0344916768 0.0345458128 0.0345561095 0.0345213823 0.0344457626
712.44787345080067 0.0343402512 0.03422397 0.0341212712 0.0340538546 0.0340369418 0.0340720266
713.17104835249711 0.0341470055 0.0342388116 0.0343222469 0.0343802013 0.0344082452 0.0344164222
713.89422325419343 0.0344236679 0.0344509631 0.0345105119 0.0346015356 0.0347097702 0.034813039
714.61739815588976 0.0348891169 0.0349220075 0.034907572 0.0348520651 0.0347699262 0.0346767157
715.3405730575862 0.034586072 0.0345068164 0.034442462 0.0343932919 0.0343581438 0.0343354791
716.06374795928264 0.0343238264 0.0343212448 0.0343246497 0.0343298875 0.034332864 0.0343300663
716.78692286097896 0.0343196653 0.0343010575 0.0342748091 0.0342417881 0.0342030339 0.034160126
717.51009776267529 0.0341160744 0.034075968 0.0340467617 0.0340366922 0.0340529233 0.0341001227
718.23327266437173 0.0341783352 0.0342835598 0.034406703 0.0345370248 0.0346635431 0.0347762778
718.95644756606805 0.0348680057 0.0349343233 0.0349734314 0.0349863246 0.0349765569 0.0349505544
719.67962246776437 0.0349171944 0.0348862447 0.0348677188 0.0348686501 0.0348919891 0.0349348634
720.40279736946081 0.0349901319 0.035047777 0.0350985676 0.035137441 0.0351645648 0.0351846851
721.12597227115714 0.0352037996 0.035226509 0.0352524184 0.0352764241 0.0352894329 0.0352822095
721.84914717285346 0.0352511257 0.0351993106 0.0351388752 0.0350870378 0.0350614972 0.0350729227
722.5723220745499 0.0351212025 0.0351938121 0.035269849 0.0353258066 0.0353428051 0.0353138372
723.29549697624634 0.0352442265 0.0351506621 0.0350534171 0.0349721014 0.0349180587 0.0348919891
724.01867187794267 0.0348849148 0.0348819718 0.0348687954 0.0348355137 0.0347808748 0.0347125679
724.74184677963899 0.0346460305 0.0345985927 0.0345851369 0.0346138068 0.0346818455 0.0347763151
725.46502168133543 0.0348756537 0.0349570923 0.0350013375 0.0349992551 0.0349548645 0.0348846987
726.18819658303175 0.0348124653 0.0347608812 0.0347463414 0.03477294 0.0348329283 0.0349088646
726.91137148472808 0.0349810794 0.0350337699 0.0350577272 0.035052266 0.0350222401 0.0349746533
727.63454638642452 0.0349156521 0.0348493345 0.0347796902 0.0347125679 0.0346569419 0.034625683
728.35772128812084 0.0346306711 0.0346801579 0.0347732268 0.0348993875 0.0350381136 0.0351640247
729.08089618981717 0.03525443 0.0352923088 0.0352715366 0.0351961106 0.0350785591 0.0349351875
729.80407109151361 0.0347816646 0.034631677 0.0344954804 0.034380272 0.0342924148 0.0342374146
730.52724599321004 0.034220133 0.0342427939 0.0343030989 0.034392681 0.0344962701 0.0345956869
731.25042089490637 0.0346719064 0.0347102694 0.0347052477 0.0346607454 0.0345896222 0.034507785
731.97359579660269 0.0344316326 0.0343715586 0.0343297794 0.0343020596 0.034280546 0.0342578851
732.69677069829913 0.0342303514 0.0341994837 0.0341710933 0.034152668 0.0341503732 0.034168154
733.41994559999546 0.0342075154 0.0342682488 0.034350615 0.0344539769 0.0345760584 0.0347107388
734.14312050169178 0.0348457433 0.0349650271 0.0350508317 0.0350888707 0.035074573 0.0350140855
734.86629540338822 0.034923695 0.0348242745 0.0347374789 0.0346780792 0.0346520953 0.034657836
735.58947030508455 0.0346881971 0.0347346403 0.0347890966 0.0348455645 0.0348982364 0.0349408612
736.31264520678087 0.0349675789 0.0349738635 0.0349598937 0.0349318087 0.0349017903 0.0348843411
737.03582010847731 0.0348905884 0.0349241607 0.0349782445 0.0350379013 0.0350837335 0.0351004377
737.75899501017375 0.0350817218 0.0350327268 0.034966968 0.0349016115 0.0348509848 0.0348213315
738.48216991187007 0.0348097347 0.0348065048 0.034800224 0.0347820222 0.0347488932 0.0347042419
739.2053448135664 0.0346553959 0.0346115455 0.0345793962 0.0345626064 0.0345619582 0.034575738
739.92851971526284 0.0346018933 0.0346386023 0.0346850045 0.0347397402 0.0348014422 0.0348673947
740.65169461695916 0.0349334627 0.0349954814 0.0350496434 0.0350927152 0.0351235382 0.0351420008
741.37486951865549 0.0351488627 0.0351452716 0.0351315849 0.0351074077 0.0350724533 0.0350274816
742.09804442035193 0.0349750817 0.034921255 0.0348746106 0.0348450616 0.0348402523 0.0348637663
742.82121932204825 0.0349127054 0.0349783152 0.0350476317 0.0351080894 0.0351506621 0.0351724699
743.54439422374458 0.0351765305 0.035170421 0.03516284 0.0351596773 0.0351634882 0.0351729728
744.26756912544101 0.0351846479 0.0351949967 0.0352016464 0.0352033675 0.0351999216 0.0351907574
744.99074402713745 0.0351754501 0.0351546109 0.0351303257 0.0351074785 0.0350932181 0.0350941867
745.71391892883378 0.0351138376 0.0351507328 0.0351982675 0.0352467038 0.035286773 0.0353136584
746.4370938305301 0.0353282876 0.0353372358 0.0353485569 0.035368938 0.0354002118 0.0354393236
747.16026873222654 0.0354797728 0.0355160162 0.0355458632 0.0355717167 0.0355988331 0.0356318504
747.88344363392287 0.0356709845 0.0357112363 0.0357427858 0.0357540846 0.0357374623 0.0356915966
748.60661853561919 0.035622824 0.0355429836 0.0354659297 0.0354045257 0.0353660248 0.0353528
749.32979343731563 0.035362646 0.0353916921 0.0354350843 0.035488762 0.0355493501 0.0356132574
750.05296833901195 0.0356763452 0.035734836 0.0357850268 0.0358249657 0.0358541124 0.0358733647
750.77614324070828 0.0358836204 0.0358847007 0.0358749852 0.0358511619 0.035809923 0.0357487611
751.49931814240472 0.0356686115 0.0355739109 0.0354729034 0.0353759117 0.0352950059 0.0352408476
752.22249304410116 0.0352210104 0.0352394097 0.0352943949 0.0353800096 0.0354853459 0.0355964974
752.94566794579748 0.0356990062 0.0357783698 0.0358239226 0.0358306132 0.035799779 0.0357387587
753.66884284749381 0.0356599055 0.0355786234 0.0355083197 0.0354593508 0.0354356207 0.0354344733
754.39201774919025 0.0354474857 0.035463199 0.0354713239 0.0354651734 0.0354443565 0.0354136564
755.11519265088657 0.0353831723 0.0353639424 0.0353652015 0.0353928432 0.0354479887 0.0355270542
755.83836755258289 0.0356233642 0.035727676 0.0358300023 0.0359188914 0.0359838232 0.0360158272
756.56154245427933 0.0360096693 0.0359652862 0.0358893797 0.0357944183 0.0356958061 0.0356091186
757.28471735597566 0.0355465822 0.0355137512 0.035510011 0.0355293937 0.0355644524 0.0356076099
758.00789225767198 0.035653539 0.0356982872 0.0357378572 0.0357669629 0.0357791968 0.0357681885
758.73106715936842 0.0357312746 0.0356716663 0.0355999842 0.0355316587 0.0354829729 0.0354669727
759.45424206106486 0.0354878604 0.0355398916 0.0356089771 0.0356788635 0.0357343704 0.035767395
760.17741696276119 0.0357781164 0.0357735828 0.0357646979 0.0357605591 0.0357668549 0.035783045
760.90059186445751 0.0358051732 0.0358273387 0.0358456559 0.0358594395 0.0358718522 0.0358877257
761.62376676615395 0.0359113701 0.0359437615 0.0359817706 0.036017552 0.0360411331 0.0360437967
762.34694166785027 0.036020577 0.0359722674 0.035906475 0.0358364806 0.0357776508 0.0357434712
763.0701165695466 0.0357428938 0.0357773602 0.0358404741 0.0359191783 0.0359971076 0.0360587388
763.79329147124304 0.0360922217 0.0360932313 0.0360653289 0.0360193886 0.0359693542 0.0359288268
764.51646637293936 0.0359067284 0.0359034874 0.0359114036 0.0359154716 0.0358999968 0.0358531773
765.23964127463569 0.0357723609 0.0356664881 0.0355553925 0.0354639888 0.0354135856 0.035417106
765.96281617633213 0.0354727954 0.0355654247 0.0356697962 0.035759408 0.03581471 0.0358270518
766.68599107802856 0.0358014703 0.0357532576 0.0357034653 0.0356706604 0.0356672071 0.0356967039
767.40916597972489 0.0357538313 0.0358269811 0.0359020121 0.0359657556 0.0360076539 0.0360224508
768.13234088142121 0.0360102803 0.0359770916 0.0359332897 0.0358902812 0.0358597636 0.0358489677
768.85551578311765 0.0358596183 0.0358874351 0.0359236412 0.0359583758 0.0359826721 0.0359922834
769.57869068481398 0.0359867029 0.035969317 0.0359437242 0.0359131321 0.0358790495 0.0358421654
770.3018655865103 0.03580359 0.0357661732 0.0357343331 0.0357130356 0.0357059501 0.0357140414
771.02504048820674 0.0357347652 0.0357637964 0.0357969366 0.0358312987 0.0358666703 0.0359043889
771.74821538990307 0.0359450951 0.0359872431 0.0360259786 0.0360535532 0.0360627696 0.0360490903
772.47139029159939 0.0360122621 0.0359570794 0.0358912162 0.0358227715 0.0357573926 0.0356977843
773.19456519329583 0.0356436484 0.0355934016 0.0355460756 0.0355024226 0.0354647785 0.0354366638
773.91774009499227 0.0354208089 0.0354184024 0.0354284681 0.0354479887 0.0354730487 0.0354992971
774.64091499668859 0.0355230644 0.0355421565 0.035555426 0.0355634838 0.0355680846 0.0355717912
775.36408989838492 0.0355772562 0.0355862118 0.0355991945 0.0356146209 0.035630554 0.0356446542
776.08726480008136 0.035655193 0.0356624611 0.03566771 0.0356725678 0.0356788971 0.0356876031
776.81043970177768 0.0356994011 0.0357146189 0.0357341878 0.0357583649 0.0357858874 0.0358130187
777.53361460347401 0.0358324125 0.0358343571 0.0358104296 0.0357558094 0.0356738269 0.035574954
778.25678950517045 0.0354767144 0.0353981256 0.0353530496 0.0353474431 0.0353772044 0.0354308747
778.97996440686677 0.0354937576 0.0355545655 0.0356077515 0.0356547274 0.0357008055 0.035751421
779.7031393085631 0.0358088799 0.0358703434 0.0359293632 0.0359784253 0.0360123701 0.0360297933
780.42631421025953 0.0360333212 0.0360276699 0.0360182375 0.0360091291 0.0360022187 0.0359980054
781.14948911195597 0.0359954499 0.0359931104 0.0359881781 0.0359772742 0.035956502 0.035923209
781.8726640136523 0.0358771794 0.0358223729 0.0357666053 0.0357194394 0.035688933 0.0356785394
782.59583891534862 0.03568523 0.0356997959 0.0357092209 0.0357021019 0.0356712379 0.0356163494
783.31901381704506 0.0355432369 0.0354622975 0.0353848971 0.0353207029 0.0352771431 0.0352588519
784.04218871874139 0.035267584 0.0353026949 0.0353604555 0.0354340747 0.0355127789 0.0355843417
784.76536362043771 0.0356373899 0.0356642567 0.0356634296 0.0356404483 0.0356060974 0.0355724357
785.48853852213415 0.0355501063 0.0355459712 0.0355616473 0.0355952382 0.0356421359 0.03569692
786.21171342383047 0.0357528962 0.0358024389 0.0358373784 0.0358493626 0.0358325578 0.0357858874
786.9348883255268 0.03571577 0.0356343687 0.0355569012 0.0354982167 0.0354665406 0.035461545
787.65806322722324 0.0354743786 0.035491854 0.0355004109 0.0354907736 0.0354608968 0.035414841
788.38123812891968 0.0353605971 0.0353059322 0.0352565162 0.0352156572 0.035184145 0.0351633057
789.104413030616 0.0351551175 0.0351619422 0.0351852961 0.0352232754 0.0352707468 0.0353182591
789.82758793231233 0.0353561416 0.0353765227 0.0353760198 0.035357222 0.0353275314 0.0352969803
790.55076283400876 0.035274554 0.0352661461 0.0352727957 0.0352918431 0.0353172868 0.0353426635
791.27393773570509 0.0353626832 0.0353739336 0.0353753716 0.0353676789 0.0353518985 0.0353291854
791.99711263740141 0.0352996401 0.0352627337 0.0352182798 0.0351671502 0.0351125449 0.0350598097
792.72028753909785 0.0350160636 0.0349883363 0.0349816196 0.0349973142 0.0350329429 0.0350833386
793.44346244079418 0.0351423249 0.0352046266 0.0352678373 0.0353317373 0.0353965797 0.0354611464
794.1666373424905 0.0355212279 0.0355695598 0.0355984382 0.0356022865 0.0355803482 0.0355376974
794.88981224418694 0.03548434 0.0354308747 0.0353859402 0.0353538767 0.0353342518 0.0353245847
795.61298714588338 0.0353233255 0.0353324562 0.0353580825 0.0354078673 0.0354872495 0.0355954878
796.33616204757959 0.0357231461 0.0358544365 0.0359689221 0.0360475406 0.036078468 0.0360580906
797.05933694927603 0.0359923206 0.0358930491 0.0357762463 0.0356572084 0.0355478041 0.035456188
797.78251185097247 0.0353855826 0.0353342518 0.0352969095 0.0352657884 0.0352329426 0.0351921953
798.50568675266879 0.035141822 0.0350855999 0.0350322612 0.0349919982 0.0349739715 0.0349815488
799.22886165436512 0.0350101702 0.0350483172 0.0350805707 0.0350929275 0.0350766554 0.0350318663
799.95203655606156 0.0349666439 0.0348952562 0.0348331779 0.0347921476 0.0347791165 0.0347943343
800.67521145775788 0.0348331444 0.0348873921 0.0349484384 0.0350073688 0.0350562893 0.0350887626
801.39838635945421 0.0350999683 0.0350875407 0.035052482 0.0349998288 0.0349381305 0.0348770507
802.12156126115065 0.0348266438 0.0347944796 0.0347849317 0.0347992554 0.0348366611 0.0348955803
802.84473616284708 0.0349737555 0.0350680724 0.0351739079 0.0352829285 0.0353843234 0.0354655683
803.5679110645433 0.035514541 0.0355242155 0.0354940444 0.0354315601 0.0353505351 0.0352682322
804.29108596623973 0.0352012143 0.0351609364 0.0351528153 0.0351753086 0.0352224149 0.0352849066
805.01426086793617 0.0353536978 0.0354212411 0.0354813188 0.0355299301 0.0355642363 0.0355823264
805.7374357696325 0.0355838016 0.0355698131 0.0355430581 0.0355071686 0.0354660004 0.0354222842
806.46061067132882 0.0353769176 0.035328716 0.0352761745 0.0352181718 0.0351561941 0.0350951217
807.18378557302526 0.0350419953 0.0350054316 0.0349926092 0.0350063629 0.0350446515 0.0350990705
807.90696047472159 0.0351570919 0.0352032632 0.0352235287 0.0352080055 0.0351535007 0.0350642651
808.63013537641791 0.0349521339 0.0348350815 0.0347321667 0.0346612111 0.0346342623 0.0346538909
809.35331027811435 0.0347123183 0.0347922184 0.0348716304 0.0349268205 0.0349391364 0.0348995291
810.07648517981079 0.0348101296 0.0346837118 0.0345394649 0.0344005711 0.0342867151 0.0342108123
810.799660081507 0.0341783352 0.0341864713 0.0342269093 0.0342883617 0.0343602262 0.0344336033
811.52283498320344 0.0345029421 0.0345658325 0.0346219167 0.0346724801 0.0347184539 0.0347604863
812.24600988489988 0.0347976387 0.0348281525 0.0348489769 0.0348569117 0.0348495506 0.0348255336
812.9691847865962 0.0347861499 0.0347344987 0.0346766785 0.0346194059 0.0345692076 0.0345312469
813.69235968829253 0.034507677 0.0344973467 0.0344968811 0.0345020443 0.0345092937 0.0345173292
814.41553458998897 0.0345278755 0.0345458128 0.0345766321 0.0346251465 0.0346925408 0.0347752757
815.13870949168529 0.0348653831 0.0349513441 0.0350208022 0.0350642651 0.0350767635 0.0350592695
815.86188439338162 0.0350182876 0.0349642746 0.0349080376 0.0348593518 0.0348248854 0.0348077603
816.58505929507805 0.0348080844 0.0348237008 0.0348515622 0.0348878242 0.0349282213 0.0349671841
817.30823419677449 0.0349987149 0.0350159183 0.0350137614 0.0349891596 0.0349435546 0.0348822214
818.0314090984707 0.0348145477 0.0347513333 0.0347020514 0.0346734859 0.034667708 0.0346820243
818.75458400016714 0.0347105935 0.0347464867 0.0347834937 0.034817528 0.0348465331 0.0348701961
819.47775890186358 0.0348880738 0.0348993503 0.0349020436 0.0348939635 0.0348743945 0.0348445587
820.20093380355991 0.0348087661 0.0347728319 0.034743581 0.034726277 0.0347227976 0.0347315185
820.92410870525623 0.0347479209 0.0347661562 0.0347809084 0.0347889885 0.0347897038 0.0347839631
821.64728360695267 0.0347736962 0.0347599126 0.034742754 0.0347211808 0.0346937627 0.034659382
822.37045850864899 0.0346185453 0.0345728658 0.0345250405 0.0344784781 0.0344366878 0.0344029032
823.09363341034532 0.0343798772 0.0343692265 0.0343709849 0.0343828909 0.0343999602 0.0344150253
823.81680831204176 0.0344209075 0.0344116911 0.0343858302 0.0343468823 0.0343031734 0.0342652015
824.5399832137382 0.0342425071 0.0342410356 0.0342612192 0.0342984758 0.0343449488 0.0343934
825.26315811543441 0.0344381966 0.0344772562 0.0345104747 0.0345386378 0.0345608816 0.0345752351
825.98633301713085 0.0345786065 0.0345690288 0.0345475376 0.0345183313 0.0344874114 0.0344606489
826.70950791882728 0.0344411731 0.034428224 0.0344177857 0.0344044454 0.0343850777 0.0343599394
827.43268282052361 0.0343338661 0.0343138576 0.0343067944 0.0343160443 0.0343399271 0.0343715213
828.15585772221993 0.0344007164 0.0344181806 0.0344171785 0.0343964472 0.0343603306 0.0343184471
828.87903262391637 0.0342827328 0.0342645906 0.0342734829 0.0343132131 0.0343812034 0.0344687216
829.6022075256127 0.0345627479 0.0346488319 0.0347138606 0.0347506516 0.0347580798 0.0347418189
830.32538242730902 0.0347107016 0.0346751697 0.0346428007 0.0346174687 0.0345997401 0.0345892645
831.04855732900546 0.0345864668 0.0345941074 0.0346159972 0.0346547514 0.0347086564 0.0347704291
831.7717322307019 0.0348280445 0.0348667465 0.0348750055 0.0348475389 0.0347869396 0.0347029492
832.49490713239811 0.0346089974 0.0345184058 0.0344400257 0.03437794 0.0343321823 0.0343014151
833.21808203409455 0.0342844911 0.0342818387 0.0342941359 0.0343207046 0.0343582146 0.0344005339
833.94125693579099 0.0344392359 0.034467753 0.0344824232 0.0344840735 0.0344776884 0.0344707295
834.66443183748731 0.034469761 0.0344791934 0.0344993211 0.0345270522 0.0345571153 0.0345833786
835.38760673918364 0.034600243 0.0346038304 0.0345931388 0.0345694236 0.0345369875 0.0345017575
836.11078164088008 0.0344707668 0.0344489925 0.0344385915 0.0344369411 0.0344378725 0.0344323143
836.8339565425764 0.0344122648 0.0343733877 0.0343167968 0.0342490673 0.0341804139 0.0341223814
837.55713144427273 0.034083996 0.03407095 0.0340851061 0.0341249257 0.0341870822 0.0342669226
838.28030634596917 0.0343590416 0.0344562382 0.034548901 0.034626618 0.0346784368 0.0346964523
839.0034812476656 0.0346780792 0.0346272998 0.0345539935 0.0344711952 0.0343928598 0.0343290605
839.72665614936182 0.0342845246 0.0342582464 0.0342442617 0.0342344046 0.0342213176 0.0342007764
840.44983105105825 0.0341724567 0.0341400877 0.0341090113 0.034084212 0.0340681896 0.0340593755
841.17300595275469 0.0340527445 0.0340419225 0.034022212 0.0339931175 0.033960402 0.0339338928
841.89618085445102 0.0339261517 0.0339460708 0.0339957327 0.0340681188 0.0341496952 0.0342236459
842.61935575614734 0.0342758857 0.0343009122 0.0343022048 0.0342914462 0.034281943 0.0342840962
843.34253065784378 0.0343001597 0.034323968 0.0343435854 0.0343473144 0.0343302451 0.0342962891
844.06570555954011 0.0342592113 0.0342361256 0.0342434384 0.0342891142 0.0343699418 0.034471482
844.78888046123643 0.0345731527 0.0346536748 0.0346960947 0.0346934013 0.0346486494 0.0345743001
845.51205536293287 0.0344866551 0.0344027244 0.0343363062 0.0342937782 0.0342752039 0.0342743061
846.23523026462931 0.0342825167 0.0342909098 0.0342930257 0.0342875384 0.0342767835 0.0342660248
846.95840516632552 0.0342606828 0.0342643037 0.034276709 0.0342950672 0.0343138203 0.0343277007
847.68158006802196 0.0343326852 0.0343265869 0.0343096256 0.0342835933 0.0342518985 0.0342185199
848.4047549697184 0.0341886245 0.0341680832 0.0341613442 0.0341716669 0.0341976583 0.034234222
849.12792987141472 0.0342717245 0.0343000181 0.0343109183 0.0343010202 0.0342741646 0.0342390649
849.85110477311105 0.034207657 0.0341897681 0.0341906287 0.0342093073 0.034240678 0.0342773199
850.57427967480749 0.0343133546 0.0343466699 0.0343781561 0.0344103277 0.0344442949 0.0344774015
851.29745457650381 0.0345029086 0.0345119834 0.034495052 0.0344464108 0.0343654603 0.0342582799
852.02062947820014 0.0341359638 0.034012001 0.0339010395 0.0338151045 0.033761885 0.0337436572
852.74380437989657 0.0337578021 0.0337979123 0.0338551141 0.0339222103 0.0339936912 0.0340672247
853.46697928159301 0.0341424532 0.034218628 0.0342924148 0.0343569964 0.034402363 0.0344186835
854.19015418328922 0.0344005711 0.0343497172 0.0342771746 0.0341992341 0.0341361463 0.0341039598
854.91332908498566 0.0341107324 0.0341552123 0.0342280567 0.0343161151 0.0344053768 0.0344861187
855.6365039866821 0.0345527753 0.0346030779 0.034636952 0.0346541405 0.0346542485 0.0346366279
856.35967888837843 0.0346015729 0.0345504768 0.0344858691 0.0344109349 0.0343293473 0.0342447646
857.08285379007475 0.03416292 0.0340912007 0.0340384804 0.0340137929 0.0340220332 0.0340612382
857.80602869177119 0.0341210924 0.0341849662 0.0342347622 0.034256164 0.0342445858 0.0342069417
858.52920359346751 0.0341587625 0.0341170393 0.0340954661 0.0340985097 0.0341207683 0.0341507345
859.25237849516384 0.034175612 0.0341881923 0.0341883004 0.0341820978 0.0341779776 0.0341822766
859.97555339686028 0.0341961496 0.0342153646 0.0342326835 0.0342420042 0.0342409983 0.0342314988
860.69872829855672 0.0342179127 0.0342047177 0.0341940001 0.0341847874 0.0341751799 0.0341640301
861.42190320025293 0.0341534205 0.034149047 0.0341583341 0.0341876894 0.0342393145 0.0343098417
862.14507810194937 0.0343910679 0.0344722345 0.0345436968 0.0346003138 0.0346422642 0.034674596
862.8682530036458 0.0347048864 0.0347401351 0.0347840674 0.0348351523 0.0348863527 0.0349271782
863.59142790534213 0.0349463187 0.0349343233 0.0348877162 0.0348096304 0.0347107388 0.0346050151
864.31460280703845 0.0345080718 0.034431953 0.0343817435 0.0343554206 0.0343456306 0.0343432985
865.03777770873489 0.0343406461 0.0343354791 0.0343309604 0.0343339033 0.0343513675 0.0343873352
865.76095261043122 0.0344405994 0.0345043428 0.034568347 0.0346214511 0.0346547514 0.0346638672
866.48412751212754 0.0346486159 0.0346132703 0.0345647223 0.0345106907 0.0344582088 0.034412764
867.20730241382398 0.0343773663 0.0343525857 0.0343367718 0.0343275182 0.0343229286 0.0343221761
867.93047731552042 0.0343261585 0.0343367718 0.0343553461 0.0343812034 0.0344105773 0.03443712
868.65365221721663 0.0344542302 0.0344571695 0.0344450809 0.0344214439 0.0343933627 0.0343691893
869.37682711891307 0.0343549512 0.0343541279 0.0343669318 0.0343915708 0.0344258212 0.0344679318
870.10000202060951 0.0345162898 0.0345678777 0.0346174687 0.0346573703 0.0346792266 0.0346770734
870.82317692230583 0.034650445 0.0346062705 0.0345564336 0.0345158949 0.0344979204 0.0345097221
871.54635182400216 0.0345513038 0.03461596 0.0346939415 0.0347741619 0.0348472148 0.0349061377
872.2695267256986 0.034944918 0.0349587426 0.0349436961 0.0348984897 0.0348260365 0.0347346067
872.99270162739492 0.0346378125 0.034551017 0.0344873033 0.0344546959 0.034453582 0.034477938
873.71587652909125 0.0345169716 0.0345601998 0.0345990956 0.0346274413 0.034641508 0.0346371308
874.43905143078769 0.0346093923 0.034553349 0.0344661362 0.0343499668 0.0342138261 0.0340730287
875.16222633248412 0.0339462869 0.0338500626 0.033795692 0.033785522 0.0338131711 0.0338656455
875.88540123418034 0.0339272991 0.0339845531 0.0340278037 0.0340541415 0.0340662189 0.0340712741
876.60857613587677 0.0340780467 0.0340951793 0.0341287628 0.0341807008 0.0342483483 0.0343249738
877.33175103757321 0.0344020762 0.0344706215 0.0345235355 0.0345573686 0.0345717892 0.0345688835
878.05492593926954 0.034552414 0.0345266201 0.0344961621 0.034466818 0.0344459079 0.0344409943
878.77810084096586 0.0344583169 0.0345003605 0.0345628187 0.0346345827 0.0346988924 0.0347391628
879.5012757426623 0.0347441882 0.0347119235 0.0346513055 0.034580186 0.0345195532 0.0344852209
880.22445064435863 0.0344850793 0.0345146731 0.0345617086 0.034607958 0.0346375629 0.0346404687
880.94762554605495 0.0346151702 0.0345676281 0.0345088281 0.0344521143 0.0344091803 0.0343883783
881.67080044775139 0.0343937576 0.0344242416 0.0344739594 0.0345328972 0.0345894061 0.0346320719
882.39397534944771 0.0346529558 0.0346499085 0.0346274413 0.0345955081 0.0345653333 0.0345468558
883.11715025114404 0.0345449895 0.0345573686 0.0345760584 0.0345904827 0.0345909484 0.0345714688
883.84032515284048 0.0345318578 0.0344775468 0.0344177149 0.0343632735 0.0343237892 0.0343072228
884.56350005453692 0.0343175493 0.0343551338 0.0344163179 0.0344942622 0.0345789678 0.0346584134
885.28667495623324 0.0347220078 0.0347600542 0.0347674489 0.0347437225 0.0346934386 0.0346253254
886.00984985792957 0.0345500484 0.0344790891 0.0344224498 0.0343858674 0.0343708396 0.0343739241
886.73302475962601 0.0343874805 0.034401577 0.0344078168 0.0344015025 0.0343836807 0.0343605839
887.45619966132233 0.034342438 0.0343393534 0.0343572497 0.0343955494 0.0344468392 0.0344999656
888.17937456301865 0.0345432684 0.0345686674 0.0345753431 0.0345687419 0.0345591977 0.0345574729
888.90254946471509 0.0345724374 0.0346076712 0.0346616767 0.0347285755 0.0348003656 0.0348679312
889.62572436641142 0.0349221863 0.0349557251 0.0349629447 0.0349415764 0.034893211 0.0348246358
890.34889926810774 0.0347469524 0.0346723348 0.0346123725 0.0345732979 0.0345545672 0.0345486477
891.07207416980418 0.0345440544 0.0345302448 0.0345005393 0.0344555192 0.0344022214 0.034352228
891.79524907150062 0.0343168713 0.0343036018 0.0343140736 0.0343442671 0.0343860835 0.0344303399
892.51842397319695 0.034469977 0.0345006101 0.0345215276 0.0345340818 0.0345414355 0.0345469974
893.24159887489327 0.0345536359 0.0345638953 0.0345794335 0.0346008167 0.0346274786 0.0346574411
893.96477377658971 0.0346878022 0.0347148664 0.0347357914 0.0347492509 0.0347554944 0.03475729
894.68794867828603 0.0347581878 0.0347619578 0.0347711816 0.0347864032 0.0348059312 0.034826681
895.41112357998236 0.034844812 0.0348571613 0.0348626189 0.0348617919 0.0348569453 0.0348501951
896.1342984816788 0.0348431244 0.0348356217 0.0348255672 0.0348102748 0.0347881988 0.0347600915
896.85747338337512 0.034729939 0.0347039886 0.0346889868 0.0346894562 0.0347061455 0.0347352512
897.58064828507145 0.0347696021 0.0348016955 0.034825962 0.0348406471 0.0348484032 0.0348547548
898.30382318676789 0.0348654203 0.034884125 0.0349112339 0.0349440202 0.034978494 0.0350102074
899.02699808846432 0.0350361392 0.0350549258 0.0350655578 0.0350667424 0.0350565761 0.0350326896
899.75017299016065 0.0349940471 0.0349421538 0.0348819345 0.0348201096 0.0347640738 0.0347192064
900.47334789185697 0.0346859396 0.034660887 0.034636952 0.0346078165 0.0345697105 0.0345241092
901.19652279355341 0.0344769359 0.0344371907 0.0344140194 0.0344119035 0.0344307721 0.0344648473
901.91969769524974 0.0345057771 0.0345441625 0.0345734768 0.0345914178 0.0346003138 0.0346050151
902.64287259694606 0.0346115828 0.0346246064 0.0346454941 0.0346725173 0.0347018018 0.0347288996
903.3660474986425 0.0347502902 0.0347642191 0.0347711109 0.0347726196 0.0347706787 0.0347665511
904.08922240033883 0.0347610228 0.03475485 0.0347498246 0.0347492509 0.034757182 0.034776926
904.81239730203515 0.0348096639 0.0348525308 0.0348986685 0.0349383801 0.0349628031 0.0349663198
905.53557220373159 0.0349497311 0.0349197797 0.0348881111 0.0348678268 0.0348681845 0.0348932818
906.25874710542803 0.0349406786 0.0350029878 0.0350697599 0.0351311155 0.0351797268 0.035211239
906.98192200712435 0.0352244601 0.0352202579 0.0352011062 0.0351710692 0.0351356417 0.0351020172
907.70509690882068 0.0350782387 0.0350709446 0.0350835547 0.0351147689 0.0351574868 0.0352003165
908.42827181051712 0.0352311097 0.035239052 0.0352183543 0.0351705663 0.0351033099 0.0350295678
909.15144671221344 0.0349627286 0.0349152572 0.0348938555 0.0348995663 0.0349264592 0.0349640213
909.87462161390977 0.0350002944 0.0350242518 0.0350292437 0.0350153074 0.0349885859 0.0349592119
910.59779651560621 0.0349390283 0.0349380225 0.0349612199 0.0350081585 0.0350732096 0.0351482183
911.32097141730253 0.0352241024 0.0352928862 0.0353491344 0.0353894643 0.0354118235 0.0354158506
912.04414631899897 0.0354029424 0.0353764519 0.0353417657 0.0353063978 0.0352777168 0.0352609009
912.76732122069529 0.0352580622 0.0352670103 0.0352825709 0.0352982394 0.0353098474 0.0353159569
913.49049612239162 0.0353189409 0.0353224277 0.0353301205 0.0353430584 0.0353589803 0.0353733972
914.21367102408806 0.0353813395 0.0353799723 0.0353697278 0.0353544876 0.0353396796 0.0353304781
914.93684592578438 0.0353298299 0.0353377387 0.0353510007 0.0353648774 0.035375122 0.0353790037
915.66002082748082 0.0353763774 0.035369765 0.0353636891 0.0353628621 0.0353713483 0.035390541
916.38319572917715 0.03541876 0.0354507565 0.0354789793 0.0354964174 0.0354980379 0.035483513
917.10637063087347 0.0354573354 0.0354283601 0.0354062505 0.0353983082 0.0354072936 0.0354304798
917.82954553256991 0.035461437 0.0354922488 0.0355173461 0.0355344266 0.0355449282 0.0355511121
918.55272043426623 0.0355544202 0.0355532318 0.0355434157 0.0355199352 0.0354800969 0.0354253761
919.27589533596267 0.0353625417 0.035301473 0.0352520607 0.0352214798 0.0352121741 0.0352227725
919.999070237659 0.0352491848 0.035287708 0.0353364795 0.0353953578 0.0354642048 0.0355417244
920.72224513935532 0.0356235057 0.0357034318 0.0357741602 0.0358303636 0.0358699821 0.0358949564
921.44542004105176 0.0359094627 0.0359176323 0.0359218419 0.0359213762 0.0359129533 0.035892725
922.16859494274809 0.0358578898 0.0358085558 0.0357482545 0.0356828533 0.0356195867 0.0355656035
922.89176984444453 0.0355264433 0.0355056599 0.0355048701 0.0355237462 0.0355600305 0.0356100537
923.61494474614085 0.0356688984 0.0357310958 0.0357910693 0.0358443595 0.0358868241 0.0359154381
924.33811964783717 0.0359277464 0.0359219871 0.0358977281 0.0358570255 0.0358047076 0.0357492641
925.06129454953361 0.0357004814 0.0356695801 0.0356649794 0.0356913805 0.0357480049 0.0358300395
925.78446945122994 0.0359289348 0.0360352285 0.0361402929 0.036236953 0.0363196209 0.0363841057
926.50764435292638 0.0364271998 0.0364466235 0.036442589 0.0364179388 0.0363790281 0.0363345332
927.2308192546227 0.0362943299 0.0362669565 0.036257159 0.0362652987 0.0362874493 0.0363170989
927.95399415631903 0.0363463126 0.0363690853 0.0363823064 0.0363860875 0.0363829173 0.0363768674
928.67716905801547 0.0363715328 0.0363687947 0.0363686495 0.0363690108 0.0363677144 0.0363629237
929.40034395971179 0.0363547429 0.0363455229 0.0363395773 0.0363410898 0.0363530517 0.0363759287
930.12351886140823 0.0364072397 0.0364431627 0.0364793092 0.0365139395 0.0365477502 0.0365842618
930.84669376310455 0.0366275534 0.0366805866 0.0367430747 0.0368109085 0.0368768014 0.0369323902
931.56986866480088 0.0369707383 0.0369871557 0.0369805172 0.0369523764 0.0369067043 0.0368495695
932.29304356649732 0.0367874652 0.0367289037 0.0366827138 0.0366569385 0.0366574042 0.0366852023
933.01621846819364 0.0367360078 0.0368000157 0.0368648991 0.0369191878 0.0369551554 0.0369709916
933.73939336989008 0.0369705595 0.0369615406 0.0369519442 0.0369480476 0.0369534232 0.03696879
934.46256827158641 0.0369934328 0.0370265208 0.0370670073 0.0371133089 0.0371621065 0.0372082703
935.18574317328273 0.0372448415 0.0372658148 0.0372671857 0.0372491367 0.0372157805 0.0371728241
935.90891807497917 0.0371266268 0.0370812602 0.0370388962 0.0370005406 0.0369677804 0.0369440056
936.63209297667549 0.0369340852 0.0369423851 0.0369700901 0.0370127372 0.0370605849 0.0371001735
937.35526787837193 0.0371187925 0.0371096283 0.0370740816 0.0370225161 0.0369706303 0.0369355641
938.07844278006826 0.036930155 0.0369586162 0.0370159484 0.0370892733 0.0371617787 0.0372159593
938.80161768176458 0.0372393169 0.0372259244 0.0371778049 0.0371034555 0.0370152257 0.0369271599
939.52479258346102 0.036849644 0.0367893763 0.0367472917 0.0367203578 0.0367038436 0.0366937108
940.24796748515735 0.0366894193 0.0366927385 0.036706727 0.0367327258 0.0367674492 0.0368026122
940.97114238685378 0.0368272066 0.0368293002 0.0368023589 0.0367471837 0.0366728343 0.0365930945
941.69431728855011 0.036523167 0.0364750549 0.0364535786 0.0364572182 0.0364792012 0.036511492
942.41749219024643 0.0365472436 0.0365821719 0.0366144702 0.0366431661 0.0366670303 0.0366839767
943.14066709194287 0.0366915129 0.0366883017 0.0366753601 0.0366561785 0.0366364941 0.0366222933
943.8638419936392 0.0366190486 0.0366300792 0.0366563238 0.0366959833 0.0367453098 0.0367978141
944.58701689533564 0.0368453488 0.0368795432 0.0368931778 0.0368826464 0.036850255 0.0368045233
945.31019179703196 0.036759086 0.0367271714 0.0367193483 0.0367380977 0.036777474 0.036823675
946.03336669872829 0.0368607864 0.0368761532 0.0368632749 0.0368245021 0.0367686413 0.0367076658
946.75654160042473 0.0366512388 0.0366048068 0.036568258 0.0365386307 0.0365110934 0.0364838131
947.47971650212105 0.0364573263 0.0364357419 0.0364242084 0.0364270583 0.0364470929 0.0364844613
948.20289140381749 0.0365374386 0.0366021767 0.036673449 0.0367446616 0.0368075185 0.0368529595
948.92606630551381 0.0368730165 0.0368622318 0.036820177 0.0367521234 0.0366688333 0.0365837216
949.64924120721014 0.0365105532 0.0364600644 0.036436785 0.0364389122 0.0364584439 0.036484316
950.37241610890658 0.0365037769 0.0365064815 0.0364863724 0.0364429131 0.0363805033 0.0363074057
951.0955910106029 0.0362344682 0.0361715481 0.0361263938 0.036103528 0.036103528 0.0361236185
951.81876591229934 0.0361582972 0.0362006128 0.0362426415 0.0362763554 0.0362951607 0.0362949446
952.54194081399567 0.0362757444 0.0362419598 0.036202807 0.0361701809 0.0361543372 0.0361618996
953.26511571569199 0.0361926518 0.0362393297 0.0362898633 0.0363315791 0.0363567248 0.0363641493
953.98829061738843 0.0363601483 0.0363547094 0.0363576971 0.0363735147 0.0363989882 0.0364244618
954.71146551908475 0.0364381187 0.0364303365 0.0363978706 0.0363447294 0.0362806432 0.036217574
955.43464042078119 0.036164742 0.036126934 0.0361043215 0.0360941291 0.036093194 0.0361001454
956.15781532247752 0.0361155905 0.0361404717 0.0361747891 0.0362159908 0.0362587422 0.0362971425
956.88099022417384 0.0363261402 0.0363436826 0.0363499895 0.0363478623 0.0363403335 0.0363297798
957.60416512587028 0.0363170244 0.0363026522 0.0362870544 0.0362717472 0.0362577699 0.036245741
958.32734002756661 0.0362337828 0.0362178981 0.0361933745 0.0361568928 0.0361090004 0.0360555723
959.05051492926304 0.0360067524 0.0359737091 0.0359638818 0.03597828 0.0360100642 0.0360465348
959.77368983095937 0.0360728167 0.0360784307 0.036059998 0.0360231698 0.0359793231 0.0359423235
960.49686473265569 0.0359237492 0.0359287523 0.0359558202 0.0359985828 0.0360494144 0.0361020863
961.22003963435213 0.0361539759 0.0362060852 0.0362606868 0.0363191888 0.0363801084 0.0364384428
961.94321453604846 0.0364871658 0.0365194902 0.036530558 0.0365194567 0.0364892185 0.0364466235
962.6663894377449 0.0363997817 0.0363566168 0.0363237262 0.036304526 0.0362995528 0.0363053903
963.38956433944122 0.0363168828 0.0363261029 0.0363252386 0.0363078415 0.036270991 0.0362171419
964.11273924113755 0.0361528955 0.036089953 0.0360406674 0.0360151418 0.036019031 0.0360510349
964.83591414283399 0.036103528 0.0361643098 0.0362212844 0.0362643637 0.0362886749 0.0362942591
965.55908904453031 0.0362846069 0.0362645052 0.0362371691 0.036203783 0.0361635908 0.0361162014
966.28226394622675 0.0360628441 0.0360076167 0.0359566845 0.0359167308 0.0358925834 0.0358853117
967.00543884792307 0.0358917564 0.0359062962 0.035923209 0.0359382555 0.0359507464 0.0359627306
967.7286137496194 0.0359777771 0.0359984376 0.0360254385 0.0360571556 0.0360907465 0.0361240171
968.45178865131584 0.0361562446 0.0361885466 0.0362224355 0.036257986 0.0362922437 0.0363188647
969.17496355301216 0.0363296717 0.0363181047 0.0362808965 0.0362210684 0.0361474566 0.0360728502
969.8981384547086 0.0360106416 0.0359709375 0.035959132 0.0359749347 0.0360130556 0.0360654704
970.62131335640493 0.0361242667 0.0361822806 0.0362334587 0.0362736918 0.0362995528 0.0363085605
971.34448825810125 0.0363003127 0.0362762474 0.0362405889 0.0361994244 0.0361596644 0.0361267887
972.06766315979769 0.0361035988 0.0360893421 0.0360810608 0.0360747613 0.0360679924 0.0360609703
972.79083806149401 0.0360571556 0.0360618718 0.0360799804 0.0361135751 0.0361604951 0.0362150185
973.51401296319045 0.0362689719 0.0363141075 0.0363452323 0.0363606513 0.0363625996 0.0363556445
974.23718786488678 0.0363451988 0.0363356508 0.0363292731 0.0363270044 0.0363284461 0.0363329127
974.9603627665831 0.0363394693 0.0363463871 0.0363515392 0.036350999 0.0363404788 0.0363161601
975.68353766827954 0.036276646 0.0362237692 0.0361634828 0.0361042842 0.0360548496 0.0360218734
976.40671256997587 0.0360084474 0.0360128395 0.0360302962 0.0360550322 0.0360824279 0.0361104421
977.1298874716723 0.0361400768 0.0361733511 0.0362120271 0.0362554304 0.0362998061 0.0363393985
977.85306237336863 0.0363687947 0.0363849737 0.036388576 0.0363843255 0.0363793895 0.0363812596
978.57623727506495 0.0363943055 0.0364197418 0.0364542641 0.0364924632 0.0365281776 0.036556758
979.29941217676139 0.0365757905 0.0365851633 0.0365858115 0.0365785658 0.0365640037 0.0365425237
980.02258707845772 0.0365152396 0.0364849642 0.0364567861 0.0364364274 0.0364287868 0.036436066
980.74576198015416 0.0364554524 0.0364798494 0.0365001038 0.0365075245 0.0364973284 0.0364705138
981.46893688185048 0.0364338681 0.0363971852 0.0363699123 0.0363582745 0.0363628864 0.036379423
982.19211178354681 0.0364002138 0.0364177972 0.0364274532 0.0364283547 0.036422912 0.0364158489
982.91528668524325 0.0364122838 0.0364163555 0.0364314876 0.0364603177 0.0365051851 0.0365675725
983.63846158693957 0.0366468765 0.0367391072 0.0368359014 0.0369247794 0.0369932875 0.0370308869
984.36163648863601 0.0370332673 0.0370037518 0.0369530246 0.0368955955 0.0368453488 0.0368128903
985.08481139033233 0.0368025415 0.036812637 0.036837738 0.0368710309 0.0369069204 0.036941085
985.80798629202866 0.0369711369 0.0369944423 0.0370082632 0.0370097794 0.0369968265 0.0369697288
986.5311611937251 0.0369316339 0.0368879847 0.0368458554 0.0368106887 0.036785733 0.0367713831
987.25433609542142 0.0367657542 0.0367664397 0.0367719233 0.0367822349 0.0367982835 0.0368205011
987.97751099711786 0.0368475877 0.0368756466 0.0368995629 0.0369142443 0.0369169153 0.0369087607
988.70068589881419 0.0368947648 0.0368828997 0.0368813127 0.0368959568 0.0369288549 0.0369774848
989.42386080051051 0.0370350368 0.0370927006 0.0371422172 0.0371767953 0.0371937603 0.0371937975
990.14703570220695 0.0371811986 0.0371620692 0.0371423997 0.0371273123 0.0371195152 0.0371191911
990.87021060390327 0.0371239185 0.0371304527 0.0371352881 0.0371360108 0.0371319689 0.0371238813
991.59338550559971 0.0371139944 0.0371046811 0.0370989442 0.0370990187 0.037106812 0.0371233411
992.31656040729604 0.03714839 0.0371807665 0.0372179113 0.037256971 0.037295565 0.0373321772
993.03973530899236 0.0373672023 0.037402343 0.0374396145 0.0374793783 0.0375199094 0.0375562869
993.7629102106888 0.0375828035 0.0375944376 0.0375895239 0.0375714228 0.0375480875 0.0375300236
994.48608511238513 0.0375264473 0.0375425592 0.0375770964 0.0376233794 0.0376709327 0.0377093852
995.20926001408156 0.037731573 0.0377348997 0.0377215631 0.0376964472 0.0376655124 0.0376336053
995.93243491577789 0.0376036167 0.0375779271 0.0375580229 0.0375461355 0.0375447646 0.0375556014
996.65560981747421 0.0375789404 0.0376130119 0.0376538411 0.0376967713 0.0377376825 0.0377749093
997.37878471917065 0.0378086716 0.0378410965 0.0378745012 0.037910115 0.0379468501 0.0379817449
998.10195962086698 0.0380101688 0.0380285047 0.0380349793 0.0380311459 0.0380211286 0.0380116515
998.82513452256342 0.0380095169 0.0380205847 0.0380469523 0.0380865186 0.0381334014 0.038178511
999.54830942425974 0.0382115804 0.0382245705 0.038212955 0.0381776802 0.0381246805 0.0380640961
1000.2714843259561 0.0380074941 0.0379650369 0.0379441753 0.0379481167 0.0379761383 0.0380242728
1000.9946592276525 0.0380869918 0.0381582528 0.0382318422 0.0383022986 0.0383649468 0.0384155102
1001.7178341293488 0.0384515673 0.0384722389 0.0384786092 0.0384739749 0.0384626463 0.0384495743
1002.4410090310453 0.0384386778 0.0384325609 0.0384321287 0.0384368338 0.0384455584 0.0384571068
1003.1641839327416 0.038470827 0.0384866111 0.0385048576 0.0385261476 0.0385504812 0.0385769494
1003.8873588344379 0.0386038199 0.0386282653 0.0386473872 0.0386591963 0.0386631452 0.0386611521
1004.6105337361344 0.0386573114 0.0386575647 0.0386666209 0.0386877358 0.038720049 0.0387590975
1005.3337086378307 0.0387977175 0.0388287306 0.0388479717 0.0388556197 0.0388572142 0.038861379
1006.0568835395271 0.0388777591 0.0389128737 0.0389679968 0.0390384272 0.0391150676 0.0391870067
1006.7800584412234 0.0392438322 0.0392790139 0.0392902568 0.0392800681 0.0392539538 0.0392200798
1007.5032333429198 0.0391879119 0.0391663015 0.0391638726 0.0391875133 0.0392406061 0.0393226855
1008.2264082446162 0.0394281484 0.0395477898 0.039669171 0.0397802368 0.039871607 0.0399384759
1008.9495831463125 0.0399814174 0.0400053561 0.0400180742 0.040027447 0.0400394388 0.0400578603
1009.672758048009 0.0400838405 0.0401173085 0.0401579775 0.0402060598 0.0402626954 0.0403294079
1010.3959329497053 0.0404067487 0.0404934511 0.0405862108 0.0406797156 0.040767163 0.0408422165
1011.1191078514016 0.0409002081 0.0409388356 0.0409588628 0.040963158 0.0409560241 0.040942587
1011.8422827530981 0.0409271866 0.0409141518 0.0409069806 0.0409090184 0.0409232192 0.0409509614
1012.5654576547944 0.0409919247 0.0410430171 0.0410986654 0.0411514118 0.0411939248 0.0412219018
1013.2886325564907 0.0412345082 0.0412354209 0.0412314124 0.0412303172 0.0412378982 0.0412572436
1014.0118074581871 0.0412878878 0.0413270257 0.0413718522 0.0414209105 0.0414746031 0.0415346846
1014.7349823598835 0.0416025408 0.0416774452 0.0417561941 0.0418333523 0.0419034809 0.0419629999
1015.4581572615799 0.0420112871 0.0420510359 0.0420873575 0.0421252549 0.0421681181 0.0422171205
1016.1813321632762 0.0422708765 0.0423267186 0.0423811823 0.0424312688 0.0424739085 0.0425060615
1016.9045070649726 0.0425246246 0.0425275117 0.0425143205 0.0424872451 0.0424520969 0.0424171314
1017.627681966669 0.0423910469 0.0423807465 0.0423896238 0.0424170941 0.0424587801 0.0425092429
1018.3508568683653 0.0425643139 0.042621512 0.0426813476 0.0427448153 0.0428122021 0.0428815
1019.0740317700618 0.0429487266 0.043008171 0.0430555865 0.0430893563 0.0431119315 0.0431287661
1019.7972066717581 0.0431465879 0.0431715474 0.0432062037 0.04324954 0.0432966873 0.0433411337
1020.5203815734544 0.0433762819 0.0433977395 0.0434039608 0.0433968604 0.0433811136 0.0433626957
1021.2435564751509 0.0433483087 0.0433436595 0.04335263 0.043376904 0.043415498 0.0434650071
1021.9667313768472 0.0435193554 0.0435716249 0.043614924 0.0436433181 0.0436537229 0.0436467603
1022.6899062785436 0.0436265022 0.0435995758 0.0435742997 0.0435581841 0.0435555801 0.0435669385
1023.4130811802399 0.0435881838 0.0436123237 0.04363079 0.0436365418 0.0436264277 0.0436016656
1024.1362560819362 0.0435679257 0.0435327254 0.0435040481 0.0434873104 0.0434840135 0.043492876
1024.8594309836326 0.0435098335 0.0435311124 0.043553751 0.0435767546 0.0436003804 0.043625731
1025.582605885329 0.0436529182 0.04368091 0.0437071808 0.04372935 0.0437450707 0.0437536836
1026.3057807870255 0.0437553674 0.0437514484 0.0437428355 0.0437300466 0.0437125303 0.0436894111
1027.0289556887219 0.0436603539 0.0436258428 0.0435881093 0.043550197 0.0435158759 0.0434884802
1027.7521305904181 0.0434698425 0.043460466 0.0434594415 0.043464493 0.0434731729 0.0434830971
1028.4753054921146 0.0434920341 0.0434985161 0.0435015559 0.0435005687 0.043495439 0.0434869081
1029.1984803938108 0.0434756279 0.0434630662 0.0434501395 0.043437615 0.0434248708 0.043410372
1029.9216552955072 0.043391183 0.0433644168 0.0433277711 0.0432810597 0.0432271026 0.0431721322
1030.6448301972036 0.0431248881 0.0430942588 0.0430874527 0.0431071781 0.043150831 0.043210119
1031.3680050989001 0.0432734452 0.043329712 0.0433696918 0.0433904529 0.0433942974 0.0433886573
1032.0911800005965 0.0433823951 0.0433826894 0.0433926471 0.043410372 0.0434296317 0.0434418991
1032.8143549022927 0.0434407629 0.043423187 0.0433915854 0.0433528498 0.0433164947 0.043291565
1033.5375298039892 0.0432835482 0.0432928801 0.0433146991 0.0433409512 0.0433621854 0.0433715582
1034.2607047056854 0.0433664694 0.0433490761 0.0433254987 0.0433024727 0.0432858169 0.0432775058
1034.9838796073818 0.0432752371 0.0432742126 0.0432688668 0.043255873 0.0432354137 0.0432107411
1035.7070545090783 0.0431866981 0.0431669727 0.0431517847 0.0431374013 0.0431162529 0.0430814885
1036.4302294107747 0.0430286564 0.0429591164 0.0428797826 0.0428031348 0.0427426212 0.0427093506
1037.1534043124711 0.042710118 0.0427450351 0.0428082533 0.0428895466 0.0429779179 0.043063011
1037.8765792141674 0.0431371443 0.0431967601 0.0432411954 0.0432731882 0.0432967246 0.0433161631
1038.5997541158636 0.0433348715 0.043353837 0.0433715582 0.0433841906 0.0433868617 0.043374449
1039.32292901756 0.0433441699 0.0432951897 0.0432297029 0.0431517474 0.0430663414 0.0429790504
1040.0461039192564 0.0428952537 0.0428201742 0.0427592918 0.0427176878 0.0426991507 0.0427054018
1040.7692788209529 0.0427345783 0.0427813046 0.0428367369 0.0428923629 0.042940788 0.0429786481
1041.4924537226493 0.043006964 0.0430302657 0.0430539399 0.0430813432 0.0431117862 0.0431401469
1042.2156286243455 0.0431588851 0.0431595407 0.0431368165 0.0430904925 0.0430255495 0.0429514349
1042.938803526042 0.0428793803 0.0428197719 0.0427794009 0.042760428 0.0427601337 0.0427720547
1043.6619784277382 0.0427874476 0.0427969545 0.0427936986 0.0427735895 0.0427363701 0.042685844
1044.3851533294346 0.0426284187 0.0425714776 0.0425216667 0.0424839184 0.0424601696 0.0424498655
1045.1083282311311 0.0424507074 0.0424591452 0.0424721539 0.0424863324 0.0424988642 0.0425065011
1045.8315031328275 0.0425059907 0.0424943715 0.0424701795 0.042434264 0.0423899889 0.0423429757
1046.5546780345239 0.0423004963 0.0422683917 0.0422502793 0.0422458611 0.0422518104 0.0422618911
1047.2778529362201 0.0422693416 0.0422689393 0.042258095 0.0422373861 0.0422104001 0.0421825387
1048.0010278379166 0.0421594642 0.042145662 0.042143289 0.0421522707 0.0421695039 0.0421897694
1048.7242027396128 0.0422072224 0.0422159508 0.0422114246 0.0421917066 0.0421576761 0.0421132781
1049.4473776413092 0.0420636684 0.0420150459 0.0419724919 0.0419387706 0.0419137366 0.0418950878
1050.1705525430057 0.0418795086 0.0418640003 0.0418476537 0.0418325849 0.0418235026 0.041826386
1050.8937274447021 0.0418460146 0.0418843254 0.041938439 0.0420011394 0.0420617312 0.0421095192
1051.6169023463985 0.04213522 0.042134054 0.0421059057 0.0420546159 0.0419874191 0.0419117659
1052.3400772480948 0.0418355055 0.0417654961 0.0417073891 0.0416667983 0.0416477956 0.0416529365
1053.063252149791 0.0416814573 0.0417291299 0.0417878218 0.0418465957 0.0418954156 0.0419271998
1053.7864270514874 0.0419391692 0.0419343896 0.0419194996 0.0419030078 0.0418922044 0.0418921337
1054.5096019531838 0.0419046134 0.041929245 0.0419644229 0.0420082584 0.0420581177 0.0421111248
1055.2327768548803 0.0421618745 0.0422052518 0.0422349758 0.0422472842 0.0422420241 0.0422230735
1055.9559517565767 0.0421978384 0.0421742871 0.0421590991 0.0421542078 0.0421574563 0.042163223
1056.6791266582729 0.042165488 0.04216085 0.0421498604 0.0421367921 0.0421284288 0.0421310589
1057.4023015599694 0.0421479642 0.0421784148 0.0422181785 0.0422611609 0.0423010066 0.0423331484
1058.1254764616656 0.0423553213 0.0423670448 0.0423694216 0.042364452 0.0423543714 0.0423418432
1058.848651363362 0.0423295684 0.0423201472 0.0423157252 0.0423171856 0.0423239805 0.0423342437
1059.5718262650585 0.0423452035 0.0423542634 0.0423597395 0.0423612744 0.0423601046 0.0423578769
1060.2950011667549 0.0423569642 0.0423593037 0.0423661694 0.0423779674 0.0423946641 0.042415414
1061.0181760684513 0.0424382836 0.0424611196 0.0424816906 0.042497877 0.0425088406 0.0425149798
1061.7413509701476 0.0425177924 0.0425195098 0.0425220318 0.0425265282 0.0425332859 0.0425420925
1062.464525871844 0.042553205 0.0425674915 0.0425873026 0.0426149331 0.0426518507 0.0426974334
1063.1877007735402 0.0427482501 0.042799186 0.0428439789 0.0428779535 0.0428993143 0.0429098085
1063.9108756752366 0.0429137945 0.0429171994 0.0429250263 0.04293973 0.0429603942 0.0429827832
1064.6340505769331 0.0430014767 0.0430105478 0.0430057943 0.042985782 0.0429524928 0.0429107249
1065.3572254786295 0.0428675674 0.0428315103 0.0428103358 0.0428093858 0.0428307764 0.0428714454
1066.080400380326 0.0429245494 0.0429790504 0.0430232063 0.0430472083 0.0430443175 0.0430138037
1066.8035752820222 0.0429600291 0.0428919233 0.0428195521 0.042752713 0.0426991507 0.0426622294
1067.5267501837184 0.042642381 0.0426365323 0.0426404811 0.0426494367 0.0426589772 0.0426663235
1068.2499250854148 0.0426699445 0.0426708199 0.0426708572 0.0426736362 0.0426828116 0.0427004695
1068.9730999871113 0.0427273735 0.0427615233 0.0427989997 0.0428346917 0.042864494 0.0428855233
1069.6962748888077 0.0428974852 0.0429020934 0.0429011397 0.0428957269 0.0428848676 0.0428654104
1070.4194497905041 0.042833522 0.0427874476 0.042728655 0.0426633991 0.0426010787 0.042552691
1071.1426246922003 0.0425266735 0.0425256863 0.0425458215 0.0425777249 0.0426094867 0.0426304676
1071.8657995938968 0.0426354371 0.042625241 0.0426067449 0.0425883234 0.0425773598 0.0425766297
1072.588974495593 0.0425839014 0.0425925292 0.042595122 0.0425869711 0.042567566 0.0425413996
1073.3121493972894 0.0425151996 0.0424958318 0.0424873196 0.0424889997 0.0424958318 0.0425007269
1074.0353242989859 0.0424972549 0.0424815826 0.0424537025 0.0424172394 0.0423782617 0.0423426442
1074.7584992006823 0.0423149578 0.0422970615 0.0422879681 0.0422842428 0.0422813222 0.042274639
1075.4816741023787 0.0422601402 0.0422357433 0.0422013812 0.0421590991 0.0421120375 0.0420642868
1076.204849004075 0.0420194641 0.0419796444 0.0419460684 0.0419180766 0.0418942124 0.0418730117
1076.9280239057714 0.0418529809 0.0418332443 0.0418132506 0.0417926759 0.0417709686 0.0417476594
1077.6511988074676 0.0417225622 0.0416953899 0.0416665785 0.0416364186 0.0416051298 0.0415727869
1078.374373709164 0.0415394977 0.0415058807 0.0414735451 0.0414447486 0.041422002 0.0414068028
1079.0975486108605 0.0413979106 0.0413917489 0.0413813256 0.0413588397 0.0413179509 0.041255787
1079.8207235125569 0.0411745422 0.0410816222 0.0409876294 0.0409031212 0.0408363566 0.0407910384
1080.5438984142534 0.0407661088 0.0407560654 0.0407531522 0.0407496206 0.0407385603 0.0407152325
1081.2670733159496 0.0406779684 0.0406272113 0.040566057 0.0404995605 0.0404338427 0.0403755121
1081.9902482176458 0.0403291881 0.0402975231 0.0402793102 0.0402702205 0.0402640402 0.0402544066
1082.7134231193422 0.0402368866 0.0402102433 0.0401767306 0.0401411839 0.0401101857 0.0400893278
1083.4365980210387 0.0400823876 0.0400900543 0.040110331 0.0401380584 0.0401662625 0.0401879251
1084.1597729227351 0.0401970111 0.0401899219 0.0401668437 0.0401307568 0.040087074 0.040041253
1084.8829478244315 0.039996855 0.0399544612 0.0399114899 0.0398634709 0.0398073606 0.0397432707
1085.6061227261278 0.0396757759 0.0396126136 0.039563179 0.03953458 0.0395292081 0.0395440161
1086.3292976278242 0.0395721048 0.0396052077 0.0396363549 0.0396616571 0.0396800265 0.0396916792
1087.0524725295204 0.0396957435 0.0396896079 0.0396694951 0.0396318883 0.0395768248 0.0395089574
1087.7756474312168 0.0394367836 0.0393708237 0.0393201113 0.0392878652 0.0392711088 0.0392611697
1088.4988223329133 0.0392474979 0.0392203704 0.0391748212 0.0391113684 0.0390356369 0.0389558561
1089.2219972346097 0.0388797857 0.0388141312 0.0387624688 0.0387259163 0.0387038551 0.0386937484
1089.9451721363062 0.0386921205 0.0386937857 0.0386938229 0.0386871919 0.0386717282 0.0386485122
1090.6683470380024 0.0386221819 0.0385998748 0.0385877788 0.0385897346 0.0386049077 0.0386277586
1091.3915219396988 0.03865036 0.0386643745 0.0386653878 0.038653329 0.038632974 0.0386113152
1092.114696841395 0.0385956354 0.0385907106 0.0385976993 0.0386139974 0.0386350006 0.0386557169
1092.8378717430915 0.0386721976 0.038681943 0.038684804 0.0386821218 0.0386760384 0.0386692658
1093.5610466447879 0.0386643037 0.0386629999 0.0386656076 0.0386704952 0.0386746265 0.0386737213
1094.2842215464843 0.0386637598 0.0386422463 0.0386087112 0.0385653973 0.0385156833 0.0384636596
1095.0073964481808 0.038413085 0.0383664295 0.0383260399 0.0382940099 0.0382725149 0.0382633954
1095.730571349877 0.0382672325 0.0382819958 0.0383024439 0.0383215509 0.0383319743 0.0383287892
1096.4537462515732 0.0383117087 0.0382855423 0.0382584371 0.0382384285 0.0382313021 0.0382369459
1097.1769211532696 0.0382506959 0.0382641181 0.0382689685 0.0382603556 0.0382377058 0.0382045619
1097.9000960549661 0.0381666087 0.0381297097 0.0380970463 0.0380694829 0.0380463377 0.0380262621
1098.6232709566625 0.0380086862 0.0379934274 0.0379804783 0.0379686542 0.03795553 0.037938606
1099.3464458583589 0.0379159339 0.0378887802 0.0378608368 0.0378383845 0.0378272869 0.0378309004
1100.0696207600552 0.0378484353 0.0378756225 0.0379055925 0.0379318073 0.0379501767 0.0379598662
1100.7927956617516 0.0379618928 0.0379584581 0.0379506089 0.0379384607 0.0379220471 0.0379025564
1101.5159705634478 0.0378837548 0.0378710665 0.0378702693 0.0378844067 0.0379118845 0.037945658
1102.2391454651442 0.0379757769 0.0379929207 0.0379917994 0.0379734635 0.03794479 0.0379160792
1102.9623203668407 0.0378965922 0.0378914215 0.0379006043 0.0379199497 0.0379434526 0.0379660875
1103.6854952685371 0.0379853249 0.0380008034 0.0380120873 0.0380175114 0.0380132087 0.0379945487
1104.4086701702336 0.0379587822 0.0379074737 0.0378478914 0.0377908498 0.0377491042 0.0377320088
1105.1318450719298 0.0377424173 0.0377762094 0.0378230922 0.0378709212 0.0379080176 0.0379275791
1105.8550199736262 0.0379273966 0.0379096419 0.0378785506 0.0378386006 0.0377932712 0.0377449095
1106.5781948753224 0.0376953967 0.0376466848 0.0376011245 0.0375616699 0.0375308543 0.0375108048
1107.3013697770189 0.0375026427 0.0375065431 0.037521895 0.0375476517 0.0375818312 0.0376218967
1108.0245446787153 0.0376642495 0.0377046838 0.0377394184 0.0377652943 0.0377805829 0.0377848484
1108.7477195804117 0.0377785601 0.0377623327 0.0377368852 0.0377024449 0.0376597308 0.0376102999
1109.4708944821082 0.0375569016 0.0375030749 0.0374528319 0.0374094918 0.0373745337 0.0373481363
1110.1940693838044 0.0373287462 0.037313655 0.0373003669 0.0372864306 0.0372700021 0.0372502916
1110.9172442855006 0.0372276194 0.0372031815 0.0371800438 0.0371618867 0.0371523611 0.0371537656
1111.640419187197 0.0371659324 0.0371854231 0.0372063965 0.0372223854 0.0372277275 0.0372195691
1112.3635940888935 0.0371985249 0.0371675901 0.0371310301 0.0370923057 0.0370534398 0.0370153002
1113.0867689905899 0.0369787142 0.0369455926 0.0369190797 0.0369028822 0.0368994549 0.0369079672
1113.8099438922864 0.0369234458 0.0369376205 0.0369422399 0.0369317047 0.0369051173 0.0368674248
1114.5331187939826 0.0368276052 0.036795184 0.0367763229 0.0367726423 0.0367800705 0.0367917195
1115.256293695679 0.0367999449 0.0367989317 0.0367867798 0.0367646366 0.0367358997 0.0367042758
1115.9794685973752 0.0366733037 0.036645364 0.0366224013 0.0366061404 0.0365981385 0.0365986452
1116.7026434990717 0.0366063938 0.0366183259 0.0366291404 0.0366328172 0.0366246365 0.0366015993
1117.4258184007681 0.0365635008 0.0365132578 0.0364551619 0.0363949873 0.036337994 0.0362889655
1118.1489933024645 0.0362514667 0.0362270847 0.0362153426 0.0362132527 0.0362162441 0.0362180807
1118.872168204161 0.0362137556 0.0362003967 0.0361789316 0.0361536518 0.03613111 0.0361178219
1119.5953431058572 0.0361178964 0.0361313634 0.0361544453 0.0361806601 0.0362024121 0.0362142622
1120.3185180075536 0.0362127125 0.0361978039 0.0361715853 0.0361374468 0.0360992439 0.0360605754
1121.0416929092498 0.0360248983 0.0359952711 0.0359738879 0.0359614715 0.0359567925 0.0359569006
1121.7648678109463 0.0359569341 0.035951931 0.0359379314 0.0359134562 0.035879951 0.0358412676
1122.4880427126427 0.0358026549 0.0357690528 0.0357435793 0.0357267782 0.0357164182 0.0357085392
1123.2112176143391 0.0356978178 0.0356794372 0.0356503017 0.035609588 0.0355589874 0.0355024971
1123.9343925160356 0.0354456156 0.0353930928 0.0353480168 0.0353112854 0.0352819599 0.0352577381
1124.6575674177318 0.0352367163 0.0352186412 0.0352050588 0.0351982675 0.0351997763 0.0352083296
1125.380742319428 0.0352196097 0.0352268331 0.0352221243 0.035199631 0.0351578817 0.0350999683
1126.1039172211244 0.0350330509 0.0349658914 0.0349073224 0.0348631926 0.0348358005 0.0348234847
1126.8270921228209 0.0348216183 0.034823738 0.0348218717 0.0348089449 0.0347789712 0.0347295813
1127.5502670245173 0.0346634723 0.0345889404 0.0345188007 0.0344667844 0.0344442576 0.0344553068
1128.2734419262138 0.0344948359 0.034548793 0.0345986299 0.0346277282 0.0346259698 0.0345937125
1128.99661682791 0.034541294 0.0344853997 0.0344414972 0.0344196148 0.0344205834 0.0344372615
1129.7197917296064 0.0344577804 0.0344700105 0.0344671793 0.0344485976 0.0344191156 0.0343860462
1130.4429666313026 0.0343560986 0.0343336165 0.0343192369 0.0343118124 0.0343096256 0.0343115628
1131.1661415329991 0.0343172997 0.0343258716 0.0343349427 0.0343397819 0.0343348347 0.0343147554
1131.8893164346955 0.0342776068 0.0342260152 0.0341675431 0.0341136344 0.0340752155 0.0340600908
1132.6124913363919 0.0340703428 0.034101557 0.0341436714 0.0341839977 0.0342117809 0.0342196338
1133.3356662380884 0.0342065468 0.0341763273 0.0341370404 0.0340976156 0.0340648592 0.034043178
1134.0588411397846 0.0340331085 0.034032926 0.0340390541 0.0340478346 0.0340562575 0.0340613835
1134.782016041481 0.0340609886 0.0340531766 0.0340369418 0.0340129696 0.033984229 0.0339559615
1135.5051909431772 0.0339338183 0.0339225344 0.0339238942 0.0339349657 0.033948902 0.0339567848
1136.2283658448737 0.0339514464 0.0339294113 0.0338932313 0.0338502452 0.0338110924 0.033785414
1136.9515407465701 0.0337796137 0.0337951183 0.0338289328 0.0338753164 0.0339272991 0.0339787118
1137.6747156482666 0.0340239331 0.0340577997 0.0340755023 0.0340721346 0.0340448245 0.0339940488
1138.397890549963 0.0339250043 0.0338475555 0.0337732024 0.0337135755 0.0336761586 0.0336624794
1139.1210654516592 0.0336686373 0.0336874351 0.0337119289 0.0337374248 0.0337630324 0.0337909311
1139.8442403533554 0.0338239521 0.0338633172 0.0339074172 0.0339519121 0.0339911468 0.0340204574
1140.5674152550519 0.0340371914 0.0340414941 0.0340353996 0.0340215676 0.0340023264 0.0339793563
1141.2905901567483 0.0339546353 0.0339308456 0.0339122526 0.0339034759 0.0339087062 0.0339298435
1142.0137650584447 0.0339652747 0.0340095274 0.0340540335 0.0340897664 0.0341088697 0.0341071859
1142.7369399601412 0.0340846032 0.0340456478 0.0339984931 0.0339520909 0.0339158699 0.0338966697
1143.4601148618374 0.0338976346 0.0339175537 0.0339510515 0.0339907147 0.0340275876 0.0340543576
1144.1832897635338 0.0340670422 0.034065038 0.0340509191 0.0340291299 0.0340052992 0.0339838378
1144.90646466523 0.033968322 0.0339613371 0.0339645594 0.033978533 0.0340022184 0.0340325683
1145.6296395669265 0.0340638533 0.0340888351 0.0341006964 0.034094926 0.0340717733 0.034036763
1146.3528144686229 0.0339997448 0.0339717269 0.0339612998 0.0339722633 0.0340021811 0.0340440013
1147.0759893703193 0.0340878665 0.034125641 0.0341523103 0.0341671146 0.0341724902 0.0341726691
1147.7991642720158 0.0341713428 0.0341712385 0.0341738537 0.034179911 0.0341903083 0.0342057943
1148.522339173712 0.0342263728 0.0342506096 0.0342750959 0.0342949256 0.034305755 0.0343051068
1149.2455140754084 0.0342934541 0.0342744514 0.0342540517 0.0342374519 0.0342276618 0.0342247933
1149.9686889771046 0.0342261195 0.0342283808 0.0342292413 0.0342292413 0.0342317484 0.0342411436
1150.6918638788011 0.0342608988 0.0342913046 0.0343285948 0.0343659967 0.034395121 0.0344092138
1151.4150387804975 0.0344054475 0.0343855806 0.0343555622 0.0343228206 0.0342950337 0.0342765301
1152.138213682194 0.0342681408 0.0342672803 0.034269359 0.0342702195 0.0342674963 0.0342616886
1152.8613885838904 0.0342555568 0.0342531539 0.0342575982 0.0342699327 0.0342882909 0.0343089439
1153.5845634855866 0.0343265161 0.034336593 0.0343367718 0.0343270525 0.0343098417 0.0342888646
1154.3077383872828 0.0342683904 0.0342521146 0.0342420377 0.0342392437 0.0342435464 0.0342537984
1155.0309132889793 0.0342679247 0.0342837386 0.0342991911 0.0343123861 0.03432329 0.0343331844
1155.7540881906757 0.0343449824 0.0343620889 0.0343870483 0.034420263 0.0344591774 0.0344986729
1156.4772630923721 0.0345327556 0.0345567577 0.0345689543 0.0345717184 0.0345699601 0.0345702469
1157.2004379940686 0.0345773511 0.034592852 0.0346141309 0.0346360914 0.034653388 0.0346621796
1157.9236128957648 0.0346629694 0.0346596688 0.0346583761 0.034664873 0.0346823148 0.0347096957
1158.6467877974612 0.0347425751 0.0347740911 0.0347975306 0.0348088406 0.0348075107 0.0347969569
1159.3699626991574 0.0347828828 0.0347726904 0.0347725824 0.0347865447 0.0348156244 0.0348576643
1160.0931376008539 0.0349078588 0.0349596404 0.0350057557 0.0350401625 0.0350587331 0.0350605659
1160.8163125025503 0.0350483172 0.0350276642 0.0350054651 0.0349888019 0.0349826254 0.0349885151
1161.5394874042468 0.0350046754 0.035026513 0.0350485668 0.0350663476 0.0350779146 0.0350846313
1162.2626623059432 0.0350905955 0.0351007245 0.0351189375 0.0351466015 0.0351816677 0.0352198258
1162.9858372076394 0.0352552943 0.0352836475 0.0353026614 0.0353127606 0.0353164598 0.0353166424
1163.7090121093358 0.0353156328 0.0353143774 0.0353127234 0.0353112146 0.0353113562 0.0353164598
1164.4321870110321 0.0353310183 0.0353580825 0.0353981256 0.0354474485 0.0354995467 0.0355463289
1165.1553619127285 0.0355816074 0.0356034376 0.0356145874 0.035621386 0.0356306285 0.0356470644
1165.8785368144249 0.0356708765 0.0356979631 0.0357219204 0.0357374623 0.0357424654 0.035739731
1166.6017117161214 0.0357346199 0.0357342958 0.0357433632 0.035763476 0.0357927978 0.0358277373
1167.3248866178178 0.0358653031 0.0359038822 0.0359435827 0.0359846503 0.0360256881 0.0360627696
1168.048061519514 0.0360898115 0.0361000374 0.0360894501 0.0360582694 0.0360119008 0.035959024
1168.7712364212102 0.0359098949 0.0358730778 0.0358535014 0.0358525291 0.0358682908 0.0358983427
1169.4944113229067 0.0359403789 0.0359926783 0.0360538773 0.0361221433 0.0361938402 0.0362648293
1170.2175862246031 0.0363297425 0.036384251 0.0364261195 0.0364544801 0.0364701897 0.0364749469
1170.9407611262995 0.0364708751 0.0364599191 0.0364444256 0.0364274904 0.0364122838 0.0364018716
1171.663936027996 0.03639834 0.0364015475 0.0364096537 0.0364193469 0.0364282094 0.0364351273
1172.3871109296922 0.036441613 0.0364509486 0.0364669822 0.0364922471 0.0365264118 0.0365663096
1173.1102858313886 0.0366070084 0.0366433077 0.0366719328 0.0366923064 0.036706727 0.0367194898
1173.8334607330848 0.0367352478 0.0367573537 0.0367875025 0.0368251167 0.0368678197 0.0369122252
1174.5566356347813 0.0369545035 0.0369911231 0.0370191596 0.0370371304 0.0370449573 0.0370444916
1175.2798105364777 0.0370382853 0.0370299481 0.0370226949 0.037018545 0.0370181501 0.0370212533
1176.0029854381742 0.0370265208 0.0370327272 0.0370385014 0.0370429754 0.037045069 0.0370433368
1176.7261603398706 0.0370370559 0.0370265208 0.037013676 0.0370029211 0.0370002873 0.0370110758
1177.4493352415668 0.0370388627 0.0370825976 0.0371373817 0.0371942297 0.0372436121 0.0372782722
1178.1725101432633 0.0372949168 0.0372947715 0.0372828208 0.0372650921 0.0372462496 0.0372280888
1178.8956850449595 0.037209861 0.0371905491 0.0371696502 0.0371496156 0.0371354334 0.0371331237
1179.6188599466559 0.0371478833 0.0371809453 0.0372299328 0.0372881629 0.0373479202 0.0374016911
1180.3420348483523 0.0374442376 0.0374742858 0.0374928899 0.0375030376 0.0375080258 0.0375106968
1181.0652097500488 0.0375132635 0.0375172719 0.037524242 0.0375357307 0.0375528894 0.0375762284
1181.7883846517452 0.0376049168 0.0376368575 0.037668474 0.0376961194 0.0377161056 0.0377257913
1182.5115595534414 0.0377237312 0.0377105027 0.0376883149 0.0376605242 0.0376319438 0.0376074836
1183.2347344551376 0.0375910439 0.0375850461 0.0375894159 0.0376014858 0.0376167335 0.0376302078
1183.9579093568341 0.0376378708 0.0376375429 0.0376294516 0.0376155749 0.0375986658 0.0375807472
1184.6810842585305 0.0375628993 0.0375451222 0.0375275686 0.0375109501 0.0374981612 0.0374924205
1185.404259160227 0.0374968983 0.0375129357 0.0375388004 0.0375695452 0.0375985578 0.0376197658
1186.1274340619234 0.0376297757 0.0376294851 0.0376239233 0.0376201272 0.0376242474 0.0376393497
1186.8506089636196 0.0376633443 0.0376904458 0.0377122387 0.037721239 0.0377138294 0.0376909152
1187.573783865316 0.0376582481 0.0376238152 0.0375960991 0.0375814326 0.0375826955 0.0375993885
1188.2969587670123 0.0376286209 0.0376664512 0.0377083011 0.0377504751 0.0377900563 0.0378245749
1189.0201336687087 0.0378528461 0.0378742479 0.0378900096 0.0379027016 0.0379153565 0.0379313007
1189.7433085704051 0.0379521661 0.0379776955 0.0380052887 0.0380315073 0.0380533896 0.0380698107
1190.4664834721016 0.03808254 0.0380959958 0.0381154567 0.0381448679 0.038185712 0.0382351726
1191.189658373798 0.0382875688 0.0383352675 0.0383712798 0.0383915864 0.0383953117 0.0383851044
1191.9128332754942 0.0383658856 0.0383435898 0.0383234322 0.0383097529 0.0383056626 0.0383133702
1192.6360081771904 0.0383341089 0.0383684933 0.0384154022 0.0384718403 0.0385326296 0.0385912172
1193.3591830788869 0.0386405066 0.038674444 0.03869031 0.0386889316 0.0386747681 0.0386546664
1194.0823579805833 0.0386366695 0.0386273973 0.0386308022 0.038647715 0.0386760719 0.0387116447
1194.8055328822797 0.0387497172 0.0387865938 0.0388200358 0.0388498567 0.0388774686 0.0389050804
1195.5287077839762 0.038934689 0.0389671996 0.0390019976 0.039036721 0.0390681885 0.0390922613
1196.2518826856724 0.0391057134 0.0391065814 0.0390953794 0.039074786 0.0390497744 0.039026428
1196.9750575873688 0.0390109122 0.0390076153 0.0390188508 0.0390433222 0.0390773602 0.0391152836
1197.698232489065 0.0391516499 0.0391822569 0.0392054655 0.0392225459 0.0392373428 0.0392544605
1198.4214073907615 0.0392778888 0.0393097363 0.0393494926 0.039394334 0.039439287 0.0394801088
1199.1445822924579 0.0395135656 0.0395386443 0.039557226 0.0395733751 0.0395930111 0.0396219045
1199.8677571941544 0.0396649241 0.0397241712 0.0397989713 0.0398847908 0.0399745516 0.0400598235
1200.5909320958508 0.0401319899 0.0401843973 0.0402139127 0.0402208567 0.0402092598 0.0401851609
1201.314106997547 0.0401558317 0.0401275568 0.0401046611 0.0400900543 0.0400842391 0.040087074
1202.0372818992435 0.0400980115 0.0401163287 0.0401419103 0.0401744023 0.0402135476 0.0402583331
1202.7604568009397 0.040307086 0.0403571874 0.0404053293 0.040447589 0.0404802486 0.0405006893
1203.4836317026361 0.0405084379 0.0405056737 0.0404978171 0.0404923968 0.0404967964 0.0405170918
1204.2068066043325 0.0405553617 0.0406091288 0.0406720378 0.0407357216 0.0407926068 0.0408380665
1204.929981506029 0.0408716314 0.0408965684 0.0409184471 0.0409422964 0.040971607 0.0410072915
1205.6531564077254 0.0410484448 0.041093424 0.0411415026 0.0411929041 0.0412487909 0.0413100086
1206.3763313094216 0.0413760059 0.0414444208 0.0415116809 0.0415743887 0.0416299999 0.0416782126
1207.0995062111178 0.0417200848 0.0417576544 0.0417924561 0.041825179 0.0418557897 0.0418844335
1207.8226811128143 0.0419120565 0.0419417992 0.0419773795 0.0420223847 0.0420786701 0.0421450436
1208.5458560145107 0.0422173403 0.042289868 0.0423573665 0.0424165837 0.0424670018 0.0425113253
1209.2690309162072 0.042553205 0.0425965488 0.0426438078 0.0426960438 0.0427528583 0.0428138115
1209.9922058179036 0.0428785384 0.042946972 0.0430186354 0.0430923216 0.0431656539 0.043235667
1210.7153807195998 0.0432992876 0.0433557406 0.0434063077 0.0434548259 0.0435066484 0.043566972
1211.4385556212962 0.0436392874 0.0437242202 0.0438189916 0.0439182185 0.0440157801 0.04410493
1212.1617305229925 0.0441810749 0.044241935 0.0442881286 0.0443226211 0.0443506539 0.0443788394
1212.8849054246889 0.0444133356 0.0444594361 0.0445205197 0.044597216 0.0446874015 0.0447872318
1213.6080803263853 0.0448918268 0.0449959636 0.0450951681 0.0451863781 0.0452681556 0.0453407168
1214.3312552280818 0.0454060435 0.0454678498 0.045530986 0.0456002429 0.0456797071 0.0457709283
1215.0544301297782 0.0458724797 0.045979619 0.0460860468 0.0461848713 0.0462711155 0.0463433266
1215.7776050314744 0.0464038625 0.0464584343 0.0465138629 0.0465767086 0.0466515571 0.0467402898
1216.5007799331709 0.0468423292 0.046955131 0.0470755361 0.0471996292 0.0473235026 0.0474441163
1217.2239548348671 0.0475584082 0.0476648919 0.047763817 0.0478572547 0.047948122 0.0480400808
1217.9471297365635 0.0481354296 0.0482346863 0.0483364798 0.0484383032 0.0485382192 0.0486358255
1218.6703046382599 0.0487326756 0.0488315113 0.0489347838 0.0490427539 0.049153164 0.0492613018
1219.3934795399564 0.0493620373 0.0494524799 0.0495326892 0.0496063717 0.0496792533 0.0497566052
1220.1166544416528 0.0498409607 0.0499308296 0.0500214621 0.0501075014 0.0501846708 0.0502527766
1220.839829343349 0.0503155366 0.0503794551 0.0504513867 0.050535392 0.0506313629 0.0507348403
1221.5630042450452 0.0508388281 0.0509358346 0.0510202311 0.0510903671 0.0511484742 0.0511997342
1222.2861791467417 0.0512508824 0.0513086021 0.0513775945 0.0514598377 0.0515539609 0.0516557544
1223.0093540484381 0.0517589189 0.0518558696 0.0519400686 0.0520072207 0.0520565957 0.052091524
1223.7325289501346 0.0521189086 0.0521480478 0.0521875769 0.0522443764 0.0523220748 0.0524195991
1224.455703851831 0.0525326282 0.0526540652 0.052776508 0.0528929234 0.0529979542 0.053088665
1225.1788787535272 0.0531643443 0.0532254279 0.0532737449 0.0533110574 0.053339377 0.0533600971
1225.9020536552237 0.0533746332 0.0533846356 0.0533923171 0.053401012 0.0534142368 0.0534352586
1226.6252285569199 0.0534661748 0.0535069853 0.0535552241 0.053606689 0.0536570027 0.0537025183
1227.3484034586163 0.0537419282 0.0537767261 0.053810142 0.0538461879 0.0538874827 0.0539347902
1228.0715783603127 0.053986486 0.0540398806 0.0540920049 0.0541411713 0.0541874915 0.0542316735
1228.7947532620092 0.0542745106 0.0543151349 0.0543505065 0.0543757789 0.0543855801 0.0543754809
1229.5179281637056 0.0543440878 0.0542932823 0.0542281084 0.0541553609 0.0540827364 0.0540169179
1230.2411030654018 0.0539627373 0.0539233088 0.0538993366 0.053889811 0.0538920239 0.0539024882
1230.9642779670983 0.0539173074 0.0539329872 0.0539476946 0.053961087 0.0539745949 0.0539899766
1231.6874528687945 0.0540082864 0.0540284365 0.0540470853 0.0540590212 0.0540590584 0.0540437847
1232.4106277704909 0.0540133528 0.0539714806 0.0539245456 0.053879533 0.0538421348 0.0538145676
1233.1338026721874 0.0537954047 0.0537805893 0.0537651777 0.053744588 0.0537163913 0.0536802821
1233.8569775738838 0.0536376573 0.0535903089 0.0535402298 0.0534887351 0.0534367189 0.0533856116
1234.5801524755802 0.0533367917 0.0532921776 0.053253144 0.0532202199 0.0531922802 0.0531667396
1235.3033273772764 0.0531398915 0.0531080626 0.0530684106 0.0530195534 0.0529619791 0.0528974533
1236.0265022789727 0.0528288931 0.0527587011 0.0526886284 0.0526192449 0.0525495708 0.0524778888
1236.7496771806691 0.0524018817 0.0523195341 0.0522299521 0.0521338508 0.0520334393 0.0519320033
1237.4728520823655 0.0518332049 0.051740516 0.0516566895 0.0515825413 0.0515182205 0.0514627099
1238.196026984062 0.0514148548 0.0513727441 0.0513343699 0.051297117 0.0512576327 0.0512120724
1238.9192018857584 0.0511569008 0.0510889888 0.0510074124 0.0509132184 0.0508092158 0.050699316
1239.6423767874546 0.0505876951 0.0504777022 0.0503712706 0.0502694435 0.0501726195 0.0500809886
1240.3655516891511 0.0499949567 0.0499147736 0.0498401783 0.0497696102 0.049700208 0.0496287718
1241.0887265908473 0.0495518148 0.0494671464 0.0493746251 0.0492762215 0.0491752066 0.0490748808
1241.8119014925437 0.0489778817 0.0488846116 0.0487936586 0.04870243 0.0486088097 0.0485117286
1242.5350763942401 0.0484120026 0.0483117066 0.0482135788 0.0481195487 0.0480296463 0.047941871
1243.2582512959366 0.0478528552 0.0477593429 0.0476590879 0.0475522354 0.0474411249 0.0473293774
1243.981426197633 0.0472198352 0.0471139438 0.0470099933 0.0469041504 0.0467915088 0.0466681197
1244.7046010993292 0.0465327837 0.0463880487 0.0462400429 0.0460963249 0.0459646285 0.0458502024
1245.4277760010257 0.0457543619 0.0456745885 0.0456049889 0.0455384552 0.0454678126 0.0453879088
1246.1509509027219 0.0452962145 0.0451931432 0.0450818241 0.0449667871 0.0448536165 0.0447474159
1246.8741258044183 0.0446514487 0.0445668139 0.0444918126 0.0444218144 0.0443503596 0.0442712493
1247.5973007061148 0.0441792421 0.0440721065 0.043950554 0.0438186973 0.0436822996 0.0435471945
1248.3204756078112 0.0434180237 0.0432974212 0.0431853794 0.0430805758 0.0429808795 0.0428845733
1249.0436505095076 0.0427904464 0.0426980183 0.0426074043 0.0425183028 0.0424300283 0.0423412584
1249.7668254112039 0.0422504246 0.0421557762 0.0420562588 0.0419515409 0.0418417081 0.0417273417
1250.4900003129001 0.0416087769 0.0414860882 0.0413588025 0.041226238 0.0410881415 0.0409448445
1251.2131752145965 0.0407985002 0.0406526066 0.0405117832 0.0403812937 0.040265277 0.0401664786
1251.9363501162929 0.0400852561 0.0400196351 0.0399660133 0.0399200618 0.0398774892 0.0398345999
1252.6595250179894 0.0397886969 0.0397376418 0.0396796986 0.0396134481 0.0395378806 0.0394529663
1253.3826999196858 0.0393597968 0.0392605886 0.0391582884 0.0390555747 0.0389547683 0.038856633
1254.105874821382 0.0387609825 0.0386670195 0.038573835 0.0384809263 0.0383883268 0.0382961445
1254.8290497230785 0.0382044166 0.0381131433 0.0380221419 0.0379317701 0.0378433727 0.03775879
1255.5522246247747 0.0376806185 0.0376106985 0.0375489891 0.0374933966 0.0374397226 0.0373828411
1256.2753995264711 0.0373175554 0.0372408703 0.0371524319 0.0370547026 0.0369523391 0.0368504375
1256.9985744281676 0.0367542878 0.0366673917 0.0365917236 0.0365270227 0.0364718474 0.0364232361
1257.721749329864 0.0363780186 0.0363331996 0.0362861194 0.0362357274 0.0361822098 0.036126826
1258.4449242315604 0.0360715203 0.0360177681 0.0359661505 0.0359165519 0.0358676091 0.0358179137
1259.1680991332566 0.035766352 0.0357123874 0.0356560573 0.0355974659 0.0355366543 0.0354736969
1259.8912740349531 0.0354088768 0.0353434533 0.0352799483 0.0352222696 0.0351739787 0.0351375826
1260.6144489366493 0.0351130478 0.0350970589 0.0350840911 0.0350677483 0.0350420289 0.0350032747
1261.3376238383457 0.0349506289 0.0348855257 0.0348111354 0.0347313024 0.0346499421 0.0345709659
1262.0607987400422 0.0344979912 0.0344347171 0.034384001 0.0343472771 0.034323968 0.0343111679
1262.7839736417386 0.0343044251 0.0342987254 0.034290228 0.0342767462 0.0342576727 0.034233328
1263.5071485434351 0.0342037156 0.0341679752 0.034124244 0.0340715609 0.0340104587 0.0339442827
1264.2303234451313 0.0338788293 0.0338208005 0.0337754227 0.0337447673 0.0337274708 0.0337190926
1264.9534983468275 0.0337142199 0.0337086357 0.0337005407 0.0336900502 0.033677984 0.0336638764
1265.6766732485239 0.0336454734 0.0336185135 0.0335787758 0.0335239023 0.0334551148 0.0333772488
1266.3998481502204 0.0332977511 0.0332231671 0.0331584327 0.0331045389 0.0330592729 0.0330186225
1267.1230230519168 0.0329789035 0.0329386182 0.032898549 0.0328612365 0.0328293219 0.0328044519
1267.8461979536132 0.0327865481 0.0327735431 0.0327627175 0.0327515341 0.0327381715 0.0327221304
1268.5693728553094 0.0327034779 0.0326828323 0.0326606818 0.0326374285 0.0326134264 0.0325892791
1269.2925477570059 0.0325657092 0.0325435288 0.0325233527 0.0325052142 0.0324883945 0.0324714333
1270.0157226587021 0.0324521884 0.0324284807 0.0323987752 0.032362435 0.0323203504 0.0322751626
1270.7388975603985 0.0322310887 0.032193549 0.0321670361 0.0321550816 0.032158222 0.0321738869
1271.462072462095 0.0321963318 0.0322185978 0.0322338007 0.03223712 0.0322268419 0.0322046094
1272.1852473637914 0.0321742781 0.0321407765 0.0321084149 0.0320796259 0.0320551172 0.032033395
1272.9084222654878 0.0320118517 0.0319873802 0.0319579206 0.0319228284 0.0318838544 0.0318456292
1273.6315971671841 0.0318142548 0.0317960009 0.0317953229 0.0318120457 0.0318412445 0.0318726227
1274.3547720688805 0.0318936259 0.0318933763 0.0318658464 0.0318126157 0.0317427069 0.031670671
1275.0779469705767 0.0316110142 0.0315744877 0.0315643325 0.0315761976 0.0315997154 0.0316226669
1275.8011218722731 0.0316357091 0.0316346772 0.0316212773 0.0316010714 0.0315815434 0.0315680727
1276.5242967739696 0.0315627307 0.0315641202 0.0315685719 0.0315723494 0.0315732062 0.0315712467
1277.247471675666 0.0315689296 0.0315701775 0.0315784439 0.0315959752 0.0316227712 0.0316562355
1277.9706465773625 0.0316917337 0.0317228884 0.0317432396 0.0317473039 0.0317319781 0.0316978283
1278.6938214790587 0.0316487513 0.0315919109 0.0315353647 0.0314866975 0.0314510725 0.0314300582
1279.4169963807549 0.0314220786 0.0314234309 0.0314299837 0.0314383917 0.0314473324 0.0314572714
1280.1401712824513 0.0314692408 0.0314844884 0.0315028355 0.0315229297 0.0315424204 0.0315588452
1280.8633461841478 0.0315706022 0.0315776244 0.0315807573 0.0315819718 0.0315827914 0.0315840356
1281.5865210858442 0.0315847136 0.0315830037 0.0315761268 0.0315616243 0.0315384641 0.0315072909
1282.3096959875406 0.0314706303 0.031432122 0.0313958265 0.0313647315 0.0313405506 0.0313231014
1283.0328708892368 0.0313110277 0.0313033015 0.0312994532 0.0313004144 0.0313083567 0.0313256644
1283.7560457909333 0.0313535854 0.0313910879 0.0314345807 0.0314786471 0.0315170176 0.0315445922
1284.4792206926295 0.031558454 0.0315587372 0.0315481201 0.0315301642 0.0315090008 0.0314875878
1285.2023955943259 0.0314674601 0.0314496122 0.0314342231 0.0314222574 0.0314148478 0.0314134918
1285.9255704960224 0.0314188004 0.0314300582 0.031444449 0.0314581618 0.0314666033 0.0314668529
1286.6487453977188 0.0314580537 0.0314424522 0.0314247124 0.0314109288 0.0314065479 0.031414561
1287.3719202994153 0.0314344019 0.0314619727 0.0314914361 0.0315163396 0.0315322652 0.0315377153
1288.0950952011115 0.0315342583 0.031525746 0.0315165892 0.0315103196 0.0315083936 0.0315102823
1288.8182701028079 0.0315142013 0.0315189399 0.0315239616 0.0315303393 0.0315398909 0.031554535
1289.5414450045041 0.0315749161 0.0315993614 0.0316247344 0.0316465423 0.031660907 0.0316646136
1290.2646199062006 0.0316563062 0.0316369198 0.0316088386 0.031575948 0.03154267 0.0315140598
1290.987794807897 0.0314944983 0.0314875878 0.0314949639 0.0315161236 0.0315477289 0.0315847844
1291.7109697095934 0.0316220969 0.0316548124 0.0316806845 0.0316997916 0.0317136571 0.0317245983
1292.4341446112899 0.0317334756 0.0317396037 0.0317401402 0.031732548 0.0317146182 0.0316868871
1293.1573195129861 0.0316518545 0.0316140428 0.0315775163 0.031545233 0.0315177292 0.0314941071
1293.8804944146823 0.0314729102 0.0314536728 0.0314382128 0.0314300917 0.0314332619 0.0314506814
1294.6036693163787 0.0314824209 0.0315253511 0.0315742753 0.0316228457 0.0316660739 0.0317017511
1295.3268442180752 0.0317305513 0.0317556113 0.031780459 0.0318075866 0.031837251 0.0318673439
1296.0500191197716 0.0318935886 0.0319119878 0.0319196209 0.0319161974 0.0319039673 0.031887278
1296.773194021468 0.0318707302 0.0318577513 0.031848982 0.0318427049 0.0318350419 0.0318220258
1297.4963689231643 0.0318010636 0.0317722932 0.0317392126 0.0317074545 0.0316827893 0.0316694602
1298.2195438248607 0.0316693522 0.0316807926 0.0317001455 0.0317234211 0.0317474492 0.0317711532
1298.9427187265569 0.0317952521 0.031821385 0.0318510495 0.0318846032 0.0319212973 0.0319593474
1299.6658936282533 0.0319969058 0.0320325382 0.0320650712 0.0320933945 0.0321161561 0.0321317837
1300.3890685299498 0.0321385637 0.0321357101 0.0321244001 0.0321070589 0.0320876539 0.0320696384
1301.1122434316462 0.0320550092 0.0320438109 0.0320341438 0.0320236571 0.0320112072 0.0319978334
1301.8354183333427 0.0319868103 0.0319829583 0.0319902003 0.0320102088 0.0320413858 0.032079339
1302.5585932350389 0.0321179777 0.0321514085 0.0321754552 0.0321878381 0.0321884453 0.0321789905
1303.2817681367353 0.0321617536 0.0321402401 0.0321181193 0.0321001746 0.0320909359 0.0320939682
1304.0049430384315 0.032110665 0.0321394913 0.0321759582 0.0322136022 0.0322465412 0.0322705247
1304.728117940128 0.0322844088 0.032290332 0.0322918333 0.0322928317 0.0322955437 0.0323004685
1305.4512928418244 0.0323066078 0.0323126055 0.0323180668 0.0323240273 0.0323325209 0.0323458724
1306.1744677435208 0.0323653631 0.03239071 0.032419946 0.0324497595 0.0324766822 0.0324969627
1306.8976426452173 0.0325078554 0.032507211 0.0324940346 0.0324683972 0.0324329436 0.032392174
1307.6208175469135 0.0323520117 0.0323194563 0.0323002562 0.0322968289 0.0323077515 0.0323275253
1308.3439924486097 0.0323488005 0.0323635787 0.0323663279 0.0323551185 0.032332059 0.0323018618
1309.0671673503061 0.0322706327 0.0322445072 0.0322280899 0.0322246663 0.032235872 0.0322618857
1309.7903422520026 0.0323013254 0.0323506929 0.0324048102 0.0324567929 0.0324991085 0.0325259231
1310.513517153699 0.0325342454 0.0325248539 0.0325023197 0.032473363 0.0324452966 0.0324233398
1311.2366920553955 0.0324098803 0.0324047394 0.0324053466 0.0324094854 0.032415092 0.0324225165
1311.9598669570917 0.032432694 0.0324467234 0.0324645787 0.0324852169 0.0325057842 0.0325239263
1312.6830418587881 0.0325378887 0.0325479582 0.0325561725 0.0325655639 0.0325784944 0.0325956382
1313.4062167604843 0.0326158553 0.0326358192 0.032651931 0.0326616131 0.0326644704 0.0326626822
1314.1293916621808 0.032660041 0.0326604322 0.0326667204 0.0326787569 0.0326941572 0.0327084437
1314.8525665638772 0.0327172354 0.0327176265 0.0327094086 0.032694798 0.0326777212 0.0326620415
1315.5757414655736 0.0326500386 0.0326420367 0.032635998 0.0326291062 0.0326182842 0.0326018892
1316.2989163672701 0.0325800665 0.0325546712 0.03252903 0.032506533 0.0324904658 0.0324825756
1317.0220912689663 0.0324831791 0.0324910358 0.0325036421 0.0325178914 0.0325305313 0.0325393863
1317.7452661706627 0.0325434953 0.0325440317 0.0325433537 0.0325449593 0.0325520299 0.0325661711
1318.4684410723589 0.0325870663 0.0326116383 0.0326361768 0.0326562896 0.0326693282 0.0326747224
1319.1916159740554 0.0326742567 0.0326705053 0.0326660052 0.0326625742 0.0326607525 0.0326603614
1319.9147908757518 0.0326611102 0.0326630771 0.0326663628 0.0326706842 0.0326748304 0.0326763988
1320.6379657774482 0.0326725058 0.0326608606 0.0326412134 0.0326159261 0.0325898863 0.0325695314
1321.3611406791447 0.0325606354 0.0325662792 0.0325864591 0.0326179974 0.0326553583 0.0326926187
1322.0843155808409 0.0327244885 0.0327470675 0.0327581428 0.0327564627 0.032741636 0.032713946
1322.8074904825371 0.0326749347 0.0326271765 0.0325751379 0.0325236395 0.0324775763 0.032440193
1323.5306653842335 0.0324125215 0.0323937796 0.0323815681 0.032373786 0.0323691815 0.0323677883
1324.25384028593 0.0323708616 0.0323798545 0.0323955268 0.032417234 0.032443013 0.0324699692
1324.9770151876264 0.0324952491 0.0325160697 0.0325304605 0.0325371027 0.0325352103 0.0325244963
1325.7001900893229 0.0325056762 0.0324807875 0.0324526876 0.0324257314 0.0324045606 0.0323928855
1326.4233649910191 0.0323932432 0.0324063115 0.0324307308 0.0324638635 0.0325023197 0.0325428173
1327.1465398927155 0.0325822793 0.0326181389 0.0326485001 0.0326718278 0.0326877236 0.0326969065
1327.8697147944117 0.0327013358 0.0327033736 0.032705836 0.0327109471 0.0327191278 0.0327291302
1328.5928896961082 0.0327386335 0.0327451006 0.0327464603 0.0327426381 0.0327347405 0.0327259153
1329.3160645978046 0.0327191986 0.0327175185 0.0327221304 0.0327331312 0.032749176 0.0327686109
1330.039239499501 0.0327898376 0.0328119919 0.0328354686 0.032861378 0.032890901 0.0329252854
1330.7624144011975 0.032964319 0.0330065712 0.0330491886 0.033088807 0.0331215262 0.0331443772
1331.4855893028937 0.0331561416 0.033157073 0.0331494547 0.0331361517 0.0331203118 0.0331046134
1332.2087642045901 0.0330907367 0.0330799744 0.0330733582 0.0330720022 0.0330774002 0.0330904499
1332.9319391062863 0.033111155 0.0331377611 0.0331674069 0.0331959836 0.0332196616 0.0332368314
1333.6551140079828 0.0332478844 0.0332556814 0.0332639813 0.0332764313 0.0332944952 0.0333173536
1334.3782889096792 0.0333415046 0.0333627947 0.0333778225 0.0333850123 0.0333857276 0.0333826505
1335.1014638113757 0.0333797522 0.0333798602 0.0333842263 0.0333924182 0.0334028676 0.0334138907
1335.8246387130721 0.0334245898 0.0334356092 0.0334484577 0.0334648117 0.0334856771 0.0335104801
1336.5478136147683 0.0335368589 0.0335614532 0.0335805304 0.0335913412 0.0335933119 0.0335875489
1337.2709885164645 0.0335770957 0.0335664637 0.0335609168 0.0335653163 0.0335839316 0.0336194821
1337.994163418161 0.0336722918 0.0337403603 0.0338188671 0.0339019336 0.0339830853 0.0340571888
1338.7173383198574 0.0341211632 0.0341743566 0.0342177674 0.0342529044 0.034281157 0.0343028121
1339.4405132215538 0.0343177319 0.0343261212 0.0343291685 0.0343290977 0.0343297422 0.0343352295
1340.1636881232503 0.0343479589 0.0343682952 0.0343938284 0.0344198681 0.0344419256 0.0344576016
1340.8868630249465 0.0344674289 0.0344751403 0.0344862603 0.0345061012 0.0345384963 0.0345842056
1341.6100379266429 0.0346405394 0.0347026996 0.0347653665 0.0348236635 0.0348749682 0.0349187739
1342.3332128283391 0.0349556915 0.0349867195 0.035011895 0.0350311473 0.035044007 0.0350512601
1343.0563877300356 0.0350553207 0.0350597389 0.0350691862 0.0350872539 0.0351153091 0.035151884
1343.779562631732 0.0351929478 0.0352335535 0.0352692381 0.0352979861 0.0353202336 0.0353388153
1344.5027375334284 0.0353576168 0.0353796147 0.0354063585 0.0354371667 0.0354695953 0.0355008766
1345.2259124351249 0.0355285294 0.0355513617 0.0355689488 0.0355820023 0.0355915688 0.0355988331
1345.9490873368211 0.0356051289 0.0356121771 0.0356224999 0.0356389731 0.0356642567 0.035700012
1346.6722622385175 0.0357462764 0.035800606 0.0358587541 0.0359157957 0.0359667242 0.0360083729
1347.3954371402137 0.0360397287 0.0360623375 0.0360794775 0.0360953175 0.0361142233 0.0361394621
1348.1186120419102 0.0361729898 0.0362153053 0.0362655148 0.0363218524 0.0363817289 0.0364421196
1348.8417869436066 0.0364999585 0.0365520753 0.0365959406 0.0366296805 0.0366527922 0.0366655551
1349.5649618453031 0.0366695561 0.0366671048 0.0366602167 0.0366513468 0.0366421901 0.0366340429
1350.2881367469995 0.0366281308 0.0366251767 0.036625538 0.0366292484 0.0366349444 0.0366412178
1351.0113116486957 0.0366456173 0.0366462283 0.0366425179 0.0366357006 0.0366290323 0.0366273373
1351.7344865503919 0.0366353057 0.0366559997 0.0366895273 0.0367328338 0.0367813706 0.036829371
1352.4576614520884 0.0368733741 0.0369127318 0.0369497426 0.0369880572 0.0370309241 0.0370787717
1353.1808363537848 0.0371287204 0.0371749923 0.0372107252 0.0372312292 0.0372352004 0.0372256711
1353.9040112554812 0.0372085609 0.0371908732 0.0371784903 0.0371747017 0.0371798985 0.0371928588
1354.6271861571777 0.0372119173 0.0372360311 0.0372650586 0.037298996 0.0373367257 0.0373757631
1355.3503610588739 0.0374124534 0.037442971 0.0374650024 0.0374780446 0.0374842212 0.0374864228
1356.0735359605703 0.0374869667 0.0374866761 0.0374842547 0.0374768861 0.0374623314 0.0374404788
1356.7967108622665 0.0374139696 0.037388403 0.0373696238 0.0373631939 0.0373720415 0.0373959504
1357.519885763963 0.0374320298 0.0374762006 0.037524242 0.0375726521 0.0376190431 0.0376617536
1358.2430606656594 0.0376997329 0.0377322622 0.0377592221 0.0377815962 0.0378007889 0.0378187187
1358.9662355673559 0.0378367603 0.0378550887 0.0378719717 0.0378848426 0.037890844 0.0378882028
1359.6894104690523 0.0378772505 0.0378602557 0.0378414579 0.0378250107 0.0378144532 0.0378120318
1360.4125853707485 0.037818864 0.0378352404 0.0378616303 0.0378982909 0.03794479 0.0379993208
1361.1357602724447 0.0380581282 0.0381154567 0.0381657779 0.0382044166 0.0382289849 0.0382392965
1361.8589351741412 0.0382369459 0.0382244624 0.0382054672 0.0381829999 0.0381607488 0.0381421894
1362.5821100758376 0.0381309055 0.0381304696 0.0381442159 0.0381729044 0.0382142588 0.0382627435
1363.305284977534 0.0383112356 0.0383529291 0.0383843444 0.0384053029 0.0384186618 0.0384287983
1364.0284598792305 0.0384398028 0.038454283 0.0384728163 0.0384932011 0.0385115556 0.0385233238
1364.7516347809267 0.0385246985 0.0385135859 0.0384903774 0.0384577215 0.0384198911 0.0383816659
1365.4748096826231 0.0383474268 0.0383203551 0.0383018628 0.0382915847 0.0382880382 0.0382889062
1366.1979845843193 0.0382911526 0.0382924899 0.0382906459 0.0382840224 0.0382719375 0.0382541679
1366.9211594860158 0.0382311903 0.0382037647 0.0381729789 0.0381399468 0.0381054394 0.0380702801
1367.6443343877122 0.0380354486 0.0380025022 0.0379740782 0.037953686 0.03794479 0.0379500315
1368.3675092894086 0.0379694514 0.0379994661 0.0380327739 0.0380606949 0.0380750187 0.0380707122
1369.0906841911051 0.0380468778 0.0380070955 0.0379575528 0.0379044749 0.0378529914 0.037805777
1369.8138590928013 0.0377628021 0.0377227552 0.0376841575 0.0376467593 0.0376118533 0.037581794
1370.5370339944977 0.0375587791 0.037544474 0.0375388376 0.037541043 0.0375495329 0.0375627168
1371.2602088961939 0.0375788659 0.0375956669 0.0376100093 0.0376174897 0.0376126133 0.037591584
1371.9833837978904 0.03755242 0.0374972969 0.0374316685 0.0373634137 0.037300583 0.0372480899
1372.7065586995868 0.0372078754 0.0371781662 0.0371548869 0.0371336266 0.03711183 0.0370886587
1373.4297336012833 0.0370650217 0.0370418541 0.0370189436 0.0369940475 0.0369643904 0.0369279534
1374.1529085029797 0.0368852802 0.0368393622 0.0367947482 0.0367561281 0.0367266685 0.0367068015
1374.8760834046759 0.0366937853 0.0366827138 0.036667645 0.0366439596 0.0366098173 0.0365660228
1375.5992583063721 0.0365152024 0.0364603885 0.0364047512 0.0363500975 0.0362977162 0.0362471454
1376.3224332080686 0.0361969396 0.036144685 0.0360874347 0.0360230245 0.0359509252 0.0358732939
1377.045608109765 0.0357943811 0.0357203037 0.0356566682 0.0356065296 0.0355690196 0.0355387405
1377.7687830114614 0.0355077833 0.0354675837 0.0354126133 0.0353421606 0.0352612585 0.0351780728
1378.4919579131579 0.0351009034 0.0350359604 0.0349843837 0.0349432305 0.0349062458 0.0348669291
1379.2151328148541 0.0348210447 0.0347675569 0.0347090513 0.0346500874 0.0345949344 0.0345452055
1379.9383077165505 0.0344990343 0.0344517902 0.0343978442 0.034332253 0.034252651 0.0341600515
1380.6614826182467 0.0340584442 0.0339536332 0.033850994 0.0337547213 0.0336665995 0.0335865468
1381.3846575199432 0.033513166 0.0334449522 0.0333812907 0.0333222561 0.0332683809 0.0332193412
1382.1078324216396 0.0331736319 0.0331281759 0.0330787934 0.0330218375 0.0329558104 0.032881856
1382.8310073233361 0.0328048095 0.0327305943 0.0326649323 0.0326102115 0.0325642452 0.0325205699
1383.5541822250325 0.0324702896 0.0324059539 0.032324668 0.0322298408 0.0321308561 0.0320410989
1384.2773571267287 0.0319726169 0.0319326371 0.0319211893 0.0319311395 0.0319509692 0.0319679789
1385.0005320284251 0.0319733284 0.0319627002 0.0319372714 0.0319016464 0.0318612456 0.031820707
1385.7237069301214 0.031781707 0.0317437761 0.0317044221 0.0316608325 0.0316100493 0.0315500461
1386.4468818318178 0.0314803906 0.0314024165 0.0313199311 0.0312393848 0.031170886 0.0311264228
1387.1700567335142 0.031116778 0.0311468914 0.0312100817 0.0312874168 0.0313525535 0.0313851424
1387.8932316352107 0.0313756652 0.0313269123 0.0312496386 0.0311579276 0.031065274 0.0309814662
1388.6164065369071 0.0309124738 0.0308593586 0.0308199786 0.0307900291 0.0307656303 0.0307442192
1389.3395814386033 0.0307244826 0.0307056699 0.0306873918 0.0306691136 0.0306505878 0.0306324549
1390.0627563402995 0.0306161344 0.0306035485 0.030596083 0.0305938795 0.0305949096 0.0305956211
1390.785931241996 0.0305919945 0.0305809025 0.0305612776 0.0305344034 0.0305027682 0.0304706004
1391.5091061436924 0.0304418132 0.0304194931 0.0304060243 0.0304027554 0.0304095428 0.0304247532
1392.2322810453888 0.0304450821 0.0304657314 0.0304812286 0.0304865241 0.0304784905 0.0304565616
1392.9554559470853 0.0304225497 0.0303796567 0.0303312968 0.0302800648 0.0302277021 0.0301756281
1393.6786308487815 0.0301270429 0.030087376 0.0300657135 0.0300719291 0.0301132277 0.0301873498
1394.4018057504779 0.0302794259 0.0303640217 0.0304171834 0.0304264594 0.0303931255 0.0303284898
1395.1249806521741 0.0302488022 0.030171616 0.0301112756 0.0300780367 0.0300754793 0.0300995912
1395.8481555538706 0.0301399697 0.0301834084 0.0302191414 0.0302409511 0.0302476306 0.0302418396
1396.571330455567 0.0302285179 0.0302129965 0.0301999245 0.0301931035 0.0301948804 0.0302063171
1397.2945053572635 0.0302274171 0.0302566178 0.0302911848 0.0303262528 0.0303559918 0.0303735808
1398.0176802589599 0.0303729773 0.0303502008 0.0303046498 0.0302397795 0.0301630199 0.0300865583
1398.7408551606561 0.030025946 0.0299969744 0.0300107505 0.0300677381 0.0301560238 0.0302553754
1399.4640300623525 0.0303464346 0.0304177888 0.0304661933 0.03049477 0.0305085611 0.0305126496
1400.1872049640488 0.0305102319 0.0305021629 0.0304883011 0.0304681845 0.0304419193 0.0304111429
1400.9103798657452 0.0303782355 0.0303462911 0.0303187203 0.030298112 0.0302865654 0.0302850734
1401.6335547674416 0.0302933883 0.0303089488 0.0303272121 0.0303423479 0.0303476769 0.0303381905
1402.3567296691381 0.0303121824 0.0302722491 0.0302249659 0.0301791802 0.0301444102 0.030127788
1403.0799045708345 0.030133009 0.0301595405 0.0302036535 0.0302591398 0.0303181875 0.0303734392
1403.8030794725307 0.0304174684 0.0304442998 0.0304508395 0.0304376539 0.0304105375 0.0303795505
1404.5262543742269 0.0303590484 0.0303630624 0.030399736 0.030467011 0.0305509344 0.0306316018
1405.2494292759234 0.0306892041 0.0307131372 0.0307032522 0.0306679402 0.030620046 0.0305721927
1405.9726041776198 0.0305340122 0.030509131 0.0304958727 0.0304886568 0.0304816198 0.0304706004
1406.6957790793163 0.0304553881 0.0304391105 0.030427454 0.0304258205 0.0304375477 0.0304633509
1407.4189539810127 0.0305008832 0.030545637 0.0305914972 0.0306328107 0.0306647401 0.0306840129
1408.1421288827089 0.0306898449 0.030683551 0.0306687579 0.0306500196 0.0306321699 0.0306194052
1408.8653037844053 0.0306145698 0.0306188371 0.0306321345 0.0306536108 0.0306818094 0.0307147726
1409.5884786861016 0.0307497326 0.0307836272 0.0308128651 0.0308347065 0.0308476891 0.0308526698
1410.311653587798 0.0308524929 0.0308514964 0.0308539513 0.0308629163 0.030879423 0.0309027955
1411.0348284894944 0.0309311878 0.0309623927 0.0309949871 0.0310278703 0.0310606118 0.0310924314
1411.7580033911909 0.0311220456 0.0311478879 0.0311683938 0.0311830249 0.031192245 0.0311971586
1412.4811782928873 0.0311991163 0.0311992243 0.0311978702 0.0311958417 0.0311947018 0.0311976932
1413.2043531945835 0.0312094409 0.0312349685 0.031277556 0.0313371308 0.0314092189 0.0314855576
1413.92752809628 0.031555675 0.0316103362 0.0316434763 0.0316540971 0.0316454731 0.0316244848
1414.6507029979762 0.0315989666 0.0315755904 0.0315592363 0.0315526798 0.0315569192 0.0315722078
1415.3738778996726 0.0315980427 0.0316335335 0.0316758379 0.0317208208 0.0317624547 0.0317942537
1416.097052801369 0.0318111517 0.0318113677 0.0317981765 0.0317787826 0.0317640938 0.0317664109
1416.8202277030655 0.0317963213 0.0318609253 0.0319600962 0.0320858695 0.0322208814 0.0323439464
1417.5434026047619 0.0324369781 0.0324888602 0.0324990004 0.0324743241 0.0324250907 0.0323608629
1418.2665775064581 0.0322873332 0.0322065018 0.0321178325 0.0320201255 0.031916447 0.0318181776
1418.9897524081543 0.0317488723 0.0317406021 0.0318169631 0.0319727585 0.0321685709 0.0323564373
1419.7129273098508 0.0325027145 0.0325974226 0.0326480009 0.0326677561 0.0326704346 0.0326666497
1420.4361022115472 0.0326632187 0.0326632187 0.0326671489 0.0326745771 0.0326856896 0.0327021219
1421.1592771132437 0.0327267721 0.0327619649 0.0328081325 0.0328624882 0.0329200663 0.0329742208
1421.8824520149401 0.0330191217 0.0330510847 0.0330690704 0.0330746844 0.0330704637 0.0330597386
1422.6056269166363 0.0330453999 0.0330303125 0.0330175832 0.0330110788 0.0330152623 0.0330347829
1423.3288018183327 0.0330735035 0.0331326835 0.0332102552 0.0333007202 0.0333956406 0.0334854275
1424.0519767200292 0.0335625969 0.0336221308 0.0336625502 0.0336851105 0.0336926654 0.0336890854
1424.7751516217254 0.0336785205 0.0336650573 0.0336528495 0.0336445794 0.0336424671 0.0336468704
1425.4983265234218 0.033657074 0.0336713232 0.0336881876 0.0337063447 0.0337255374 0.0337461978
1426.2215014251183 0.0337687247 0.0337933302 0.0338195488 0.0338457674 0.0338696949 0.0338891111
1426.9446763268145 0.0339022204 0.0339082405 0.0339084193 0.033905372 0.0339036919 0.0339083485
1427.6678512285109 0.0339243263 0.0339554958 0.0340032578 0.0340661854 0.0341398716 0.0342181623
1428.3910261302074 0.0342929885 0.0343567468 0.0344036184 0.034429837 0.034434896 0.0344214439
1429.1142010319038 0.0343954079 0.0343653522 0.0343422592 0.0343384221 0.0343647413 0.0344277211
1429.8373759336 0.0345259756 0.0346494056 0.0347819887 0.0349072143 0.0350141935 0.0350989625
1430.5605508352965 0.035163559 0.0352138616 0.0352577008 0.0353023 0.0353530496 0.0354129747
1431.2837257369929 0.0354823619 0.0355590582 0.0356394388 0.0357194021 0.0357952081 0.035864044
1432.0069006386891 0.0359245762 0.0359771289 0.0360236019 0.03606648 0.0361084267 0.0361512378
1432.7300755403855 0.0361951031 0.0362387523 0.036280103 0.0363170244 0.036348477 0.0363755673
1433.453250442082 0.0364016555 0.036431849 0.0364718474 0.0365268067 0.0366001949 0.0366930626
1434.1764253437782 0.0368036591 0.0369276628 0.0370590314 0.0371910185 0.0373172648 0.0374332555
1434.8996002454746 0.0375359841 0.0376238488 0.0376953632 0.0377485976 0.0377798975 0.037784595
1435.6227751471711 0.0377583206 0.0376990847 0.0376092531 0.0374997519 0.0373918675 0.037319541
1436.3459500488675 0.0373304822 0.0374698453 0.0377495736 0.0381203778 0.0384902321 0.0387812704
1437.0691249505637 0.0389655679 0.0390577503 0.0390873663 0.0390834883 0.0390669927 0.0390525274
1437.7922998522602 0.0390488319 0.0390598886 0.0390869342 0.0391297527 0.0391875505 0.0392597541
1438.5154747539566 0.039345976 0.0394454934 0.0395568274 0.0396771207 0.0398024246 0.0399275422
1439.2386496556528 0.0400471762 0.0401563048 0.0402508825 0.0403284244 0.0403887853 0.040433988
1439.9618245573492 0.040468026 0.0404963233 0.0405242592 0.0405555442 0.0405922495 0.040634308
1440.6849994590457 0.0406801514 0.0407278612 0.0407760814 0.0408246368 0.0408747606 0.0409280248
1441.4081743607419 0.0409861729 0.0410499014 0.0411182977 0.0411888584 0.0412578993 0.0413211957
1442.1313492624383 0.0413753502 0.0414186865 0.0414522216 0.0414799638 0.0415086895 0.0415456221
1442.8545241641348 0.0415969975 0.0416653752 0.0417490453 0.0418416709 0.0419343524 0.0420189872
1443.5776990658312 0.0420897678 0.0421454422 0.0421892218 0.0422272347 0.0422659107 0.0423095897
1444.3008739675274 0.0423605442 0.0424183011 0.0424816906 0.0425492935 0.0426209979 0.0426971428
1445.0240488692239 0.0427777208 0.0428619348 0.0429478474 0.043032974 0.043115776 0.0431959927
1445.7472237709203 0.0432747975 0.0433533974 0.0434319377 0.0435078554 0.0435764976 0.0436320715
1446.4703986726165 0.0436698794 0.0436887518 0.0436916463 0.043684829 0.0436762907 0.0436738394
1447.1935735743129 0.0436836556 0.0437103324 0.043757163 0.0438259169 0.0439157262 0.0440204367
1447.9167484760094 0.0441288799 0.0442259051 0.0442981087 0.0443389863 0.0443497002 0.0443384349
1448.6399233777056 0.0443168581 0.0442977063 0.0442910269 0.0443017408 0.0443291143 0.0443675369
1449.363098279402 0.0444091149 0.0444468483 0.0444773845 0.044501137 0.0445204824 0.0445377007
1450.0862731810985 0.0445528254 0.0445630327 0.0445646122 0.0445540361 0.0445302464 0.0444949679
1450.8094480827947 0.0444520973 0.0444059595 0.0443601236 0.0443169326 0.0442775227 0.0442426689
1451.5326229844911 0.0442124791 0.0441867262 0.0441636145 0.0441394448 0.0441091135 0.0440685488
1452.2557978861876 0.0440164395 0.0439556129 0.0438926294 0.0438355953 0.0437901467 0.0437582247
1452.978972787884 0.0437364206 0.0437178425 0.0436941348 0.0436590724 0.0436105281 0.0435507484
1453.7021476895802 0.0434846357 0.0434157178 0.0433452316 0.0432701483 0.0431854911 0.0430859178
1454.4253225912767 0.0429689176 0.0428353474 0.0426893197 0.042536065 0.0423796512 0.0422218293
1455.1484974929731 0.042060893 0.0418932661 0.0417149402 0.0415234901 0.0413182788 0.0411016531
1455.8716723946693 0.040876437 0.0406493694 0.0404315852 0.0402402282 0.0401014276 0.0400431789
1456.5948472963657 0.0400742106 0.0401525609 0.0401964672 0.0401439853 0.0399852656 0.0397489704
1457.3180221980622 0.0394694395 0.0391735882 0.0388784111 0.0385944396 0.0383295119 0.0380863398
1458.0411970997584 0.0378636904 0.0376547091 0.0374497995 0.0372387022 0.0370158032 0.0367813706
1458.7643720014548 0.0365407206 0.0363019332 0.0360729247 0.0358599424 0.0356646888 0.035484232
1459.4875469031513 0.0353114642 0.035138052 0.0349578448 0.0347675942 0.0345676281 0.0343604758
1460.2107218048477 0.0341499448 0.0339387991 0.0337290466 0.0335213989 0.0333163552 0.0331144817
1460.9338967065439 0.0329172052 0.0327260941 0.0325427465 0.0323677547 0.0322007909 0.0320412777
1461.6570716082404 0.0318891332 0.031745594 0.0316130444 0.0314941444 0.0313906632 0.0313022695
1462.3802465099368 0.0312260687 0.031157963 0.0310932137 0.0310286526 0.0309630688 0.0308971386
1463.103421411633 0.0308320373 0.0307678711 0.0307022203 0.0306309965 0.0305487644 0.0304508749
1463.8265963133294 0.030335987 0.030207241 0.0300736334 0.0299482308 0.0298505109 0.029801501
1464.5497712150259 0.0298188534 0.0299060233 0.0300425272 0.0301870313 0.0302920733 0.0303272475
1465.2729461167221 0.0302876327 0.0301861428 0.0300439838 0.029883448 0.0297249965 0.0295830946
1465.9961210184185 0.0294669811 0.0293793324 0.0293174013 0.0292749014 0.0292452704 0.0292238276
1466.719295920115 0.0292079151 0.0291959383 0.0291858725 0.0291734003 0.0291532017 0.0291207805
1467.4424708218114 0.0290742237 0.0290161613 0.0289527588 0.0288916305 0.0288377702 0.0287918486
1468.1656457235076 0.0287483726 0.0286996625 0.0286374371 0.0285576005 0.028462315 0.0283592362
1468.8888206252041 0.0282590091 0.0281709675 0.0281008296 0.0280490108 0.0280123949 0.0279861726
1469.6119955269005 0.0279668774 0.0279535912 0.0279475842 0.0279504452 0.0279626027 0.0279818606
1470.3351704285967 0.0280039143 0.0280237403 0.0280365348 0.0280394685 0.0280318689 0.0280149747
1471.0583453302932 0.027991686 0.0279667005 0.0279470179 0.0279422831 0.027964687 0.0280245524
1471.7815202319896 0.0281223226 0.0282393135 0.028339358 0.0283852685 0.0283548143 0.0282485057
1472.5046951336858 0.0280829426 0.0278818272 0.0276700351 0.0274721105 0.0273161232 0.0272285193
1473.2278700353822 0.0272297189 0.0273210984 0.0274772998 0.0276535433 0.0278054141 0.0279085748
1473.9510449370787 0.0279584322 0.0279626735 0.0279332381 0.0278818626 0.0278187655 0.0277509466
1474.6742198387751 0.0276830662 0.0276161134 0.0275480431 0.0274754632 0.027394956 0.0273057483
1475.3973947404713 0.0272120088 0.0271231215 0.0270526595 0.0270172209 0.027030196 0.0270951893
1476.1205696421678 0.0272001922 0.0273194034 0.027421955 0.0274843238 0.0274978783 0.0274664983
1476.8437445438642 0.0274008848 0.0273130536 0.0272150785 0.0271186065 0.0270337574 0.0269702915
1477.5669194455604 0.026935529 0.0269324966 0.0269594323 0.0270095337 0.0270725135 0.0271363128
1478.2900943472569 0.0271907728 0.0272290129 0.0272487681 0.0272521563 0.02724397 0.0272301771
1479.0132692489533 0.0272156429 0.0272033662 0.0271943361 0.0271876343 0.0271805078 0.0271693971
1479.7364441506495 0.0271498915 0.0271180067 0.027071489 0.0270109437 0.0269414522 0.0268721469
1480.4596190523459 0.0268141311 0.0267794523 0.0267764553 0.0268083848 0.0268713348 0.0269552711
1481.1827939540424 0.0270469114 0.0271325391 0.0272030495 0.0272544138 0.0272873659 0.0273047611
1481.9059688557388 0.0273097716 0.0273048673 0.0272919182 0.0272731483 0.0272518024 0.0272319764
1482.629143757435 0.0272174422 0.0272103511 0.0272097159 0.0272116922 0.0272109862 0.0272030495
1483.3523186591315 0.0271861162 0.0271618478 0.0271352194 0.0271129292 0.0271004084 0.0271004084
1484.0754935608279 0.0271125752 0.027133666 0.0271592028 0.0271854457 0.0272099636 0.0272327177
1484.7986684625241 0.0272545908 0.0272766408 0.0272996798 0.0273231789 0.0273460802 0.0273662303
1485.5218433642206 0.0273818634 0.0273905098 0.0273898393 0.0273778755 0.0273535978 0.0273176041
1486.245018265917 0.0272729006 0.0272247791 0.0271812491 0.0271510202 0.0271436125 0.0271680914
1486.9681931676132 0.027229894 0.0273275543 0.0274497326 0.0275770631 0.0276859608 0.0277575515
1487.6913680693096 0.0277832653 0.0277636964 0.027706692 0.0276232809 0.0275271423 0.0274312384
1488.4145429710061 0.0273471046 0.0272839088 0.0272458401 0.0272320472 0.0272378325 0.0272562131
1489.1377178727025 0.0272811912 0.0273084659 0.0273362007 0.0273622423 0.0273828525 0.0273914989
1489.8608927743987 0.0273802411 0.0273430813 0.0272796396 0.0271962062 0.027105663 0.0270242728
1490.5840676760952 0.0269691981 0.0269522388 0.0269742403 0.0270249415 0.0270865839 0.0271420255
1491.3072425777916 0.0271791685 0.0271940883 0.0271885507 0.0271681622 0.0271394867 0.0271089431
1492.0304174794878 0.0270818584 0.0270615797 0.0270498022 0.0270469114 0.0270521641 0.027064085
1492.7535923811843 0.0270807296 0.0271000564 0.0271204412 0.0271414611 0.0271644238 0.0271921493
1493.4767672828807 0.0272279903 0.0272742771 0.0273311902 0.0273953453 0.0274604969 0.0275184941
1494.1999421845769 0.0275614932 0.0275838766 0.0275827125 0.0275581051 0.0275117513 0.0274458844
1494.9231170862734 0.0273622777 0.0272615757 0.0271441061 0.027010344 0.0268636514 0.02671271
1495.6462919879698 0.026573725 0.0264751073 0.0264540482 0.0265437495 0.026752634 0.0270471219
1496.3694668896662 0.0273660179 0.0276497994 0.0278673768 0.0280138794 0.028098708 0.0281353313
1497.0926417913624 0.0281354729 0.0281080399 0.0280586947 0.027991686 0.0279117543 0.0278238542
1497.8158166930589 0.0277350526 0.0276540723 0.0275892802 0.0275500193 0.0275443718 0.0275770985
1498.5389915947553 0.0276459157 0.0277396794 0.0278391857 0.0279234499 0.0279784333 0.0279998146
1499.2621664964515 0.0279906616 0.0279576201 0.0279086102 0.027852539 0.0277982783 0.0277552195
1499.985341398148 0.0277324393 0.027735794 0.0277669113 0.0278215576 0.0278911553 0.0279636979
1500.7085162998444 0.0280276276 0.0280747078 0.0281012543 0.0281085707 0.028100865 0.0280841105
1501.4316912015406 0.028063219 0.0280414112 0.028019676 0.027997693 0.0279749352 0.0279507991
1502.1548661032371 0.0279250741 0.0278972685 0.0278661419 0.0278304238 0.0277888812 0.0277422927
1502.8780410049335 0.0276934132 0.0276480708 0.0276134647 0.0275962353 0.0276007894 0.0276268125
1503.6012159066299 0.0276698582 0.0277211722 0.0277702305 0.0278077796 0.0278260075 0.0278207455
1504.3243908083261 0.0277910363 0.0277389716 0.0276683401 0.0275849365 0.0274966434 0.0274136961
1505.0475657100226 0.0273504201 0.0273252614 0.0273553971 0.0274453908 0.0275709908 0.027684655
1505.770740611719 0.0277374182 0.0277059507 0.0275948588 0.0274226256 0.0272133145 0.0269938782
1506.4939155134152 0.0268045794 0.0266991798 0.0267366357 0.0269511472 0.0273100529 0.0277174991
1507.2170904151117 0.0280707832 0.0283184554 0.0284592733 0.0285193846 0.0285314862 0.0285258945
1507.9402653168081 0.0285272039 0.0285515133 0.0286050197 0.0286809374 0.0287613999 0.0288218372
1508.6634402185043 0.0288419127 0.0288138706 0.0287426729 0.0286429245 0.0285320878 0.0284277163
1509.3866151202008 0.0283425767 0.0282826312 0.0282468442 0.0282274317 0.0282132532 0.0281946193
1510.1097900218972 0.0281666182 0.0281288624 0.0280853119 0.0280407052 0.0279997084 0.027965147
1510.8329649235936 0.0279375482 0.0279153232 0.0278955009 0.0278749373 0.0278510209 0.0278230757
1511.5561398252898 0.0277930498 0.0277662054 0.0277509112 0.027756704 0.0277916025 0.0278571676
1512.2793147269863 0.0279451106 0.0280392207 0.0281223934 0.0281826686 0.0282157995 0.0282247085
1513.0024896286827 0.02821647 0.0281995703 0.0281807948 0.0281644966 0.0281512048 0.0281383358
1513.7256645303789 0.0281222519 0.0281001925 0.0280725509 0.0280440636 0.0280226804 0.0280176252
1514.4488394320754 0.0280373469 0.0280862302 0.0281618461 0.0282544475 0.0283490848 0.0284300167
1515.1720143337718 0.0284852758 0.0285104327 0.0285083447 0.0284875054 0.0284581762 0.0284303706
1515.895189235468 0.0284124706 0.0284081195 0.0284169279 0.028433023 0.028447846 0.0284518432
1516.6183641371645 0.0284399576 0.0284137446 0.0283825453 0.0283601899 0.0283599067 0.0283903275
1517.3415390388609 0.0284502171 0.0285286903 0.0286088772 0.0286762659 0.0287226364 0.0287475586
1518.0647139405573 0.0287563019 0.028756585 0.0287563372 0.0287616476 0.0287759863 0.0287999194
1518.7878888422536 0.0288307946 0.0288642924 0.0288953837 0.0289207064 0.0289392285 0.0289529003
1519.51106374395 0.0289654024 0.028981341 0.0290024523 0.0290256552 0.0290408526 0.0290334485
1520.2342386456464 0.0289909765 0.028908452 0.0287923086 0.0286600552 0.0285387393 0.0284583177
1520.9574135473426 0.0284486599 0.0285233129 0.028664656 0.0288215186 0.0289375652 0.0289846361
1521.6805884490391 0.0289646238 0.0288983248 0.0288106129 0.0287257507 0.0286648683 0.0286434907
1522.4037633507355 0.0286701061 0.0287400167 0.0288353264 0.0289308708 0.0290067401 0.0290536769
1523.1269382524317 0.0290724523 0.0290691592 0.0290512685 0.0290253013 0.0289958641 0.0289651193
1523.8501131541282 0.0289334916 0.0288994219 0.0288599376 0.0288114976 0.0287520196 0.0286815036
1524.5732880558246 0.0286037456 0.0285258945 0.0284599457 0.0284203943 0.0284208544 0.0284696743
1525.296462957521 0.0285627656 0.0286816098 0.028797619 0.0288864598 0.0289354399 0.0289443992
1526.0196378592173 0.0289213788 0.028877642 0.0288245287 0.0287713483 0.0287262462 0.0286950245
1526.7428127609137 0.0286808666 0.0286842287 0.0287020691 0.0287283715 0.0287549216 0.0287734028
1527.4659876626101 0.0287780762 0.0287667457 0.0287405141 0.0287030246 0.0286596306 0.0286162384
1528.1891625643063 0.0285789389 0.0285536014 0.0285434462 0.0285478681 0.0285617746 0.0285776649
1528.9123374660028 0.0285873953 0.028585732 0.0285716485 0.0285480451 0.0285211541 0.0284975544
1529.6355123676992 0.0284830835 0.0284797922 0.0284855235 0.0284942985 0.0284985453 0.0284919273
1530.3586872693954 0.0284718331 0.0284404885 0.0284041222 0.0283717569 0.0283517018 0.0283500403
1531.0818621710919 0.0283689629 0.0284066331 0.0284573976 0.0285131577 0.028565703 0.0286075324
1531.8050370727883 0.0286341105 0.0286447648 0.0286418628 0.0286305714 0.0286174063 0.0286098327
1532.5282119744847 0.0286148582 0.0286376849 0.028680902 0.0287428144 0.0288197119 0.0289065763
1533.251386876181 0.0290006828 0.029104162 0.0292215962 0.0293551907 0.0294993576 0.0296380408
1533.9745617778774 0.02975104 0.0298202373 0.0298373792 0.0298061129 0.029738443 0.0296505261
1534.6977366795738 0.0295580178 0.0294734705 0.0294042919 0.0293512549 0.0293094609 0.029270364
1535.42091158127 0.029226061 0.0291721243 0.0291104335 0.029047478 0.0289929248 0.0289555565
1536.1440864829665 0.0289412122 0.0289511997 0.0289824046 0.0290291626 0.0290843919 0.0291414727
1536.8672613846629 0.0291946623 0.0292386431 0.0292693712 0.0292826984 0.0292755384 0.0292459428
1537.5904362863591 0.0291929953 0.0291177332 0.029021617 0.0289079566 0.0287803411 0.0286428537
1538.3136111880556 0.0285015162 0.0283640102 0.0282444041 0.0281632245 0.0281431787 0.0281943362
1539.036786089752 0.0282962117 0.0284050778 0.0284783076 0.0284985099 0.0284730699 0.0284254532
1539.7599609914485 0.0283891242 0.0284001604 0.0284928475 0.0286792386 0.028932251 0.02919087
1540.4831358931447 0.0293930173 0.0295066275 0.0295299981 0.0294809528 0.0293826293 0.029257426
1541.2063107948411 0.029122835 0.0289941635 0.0288858935 0.0288125947 0.0287893694 0.0288277846
1541.9294856965375 0.0289257001 0.0290586017 0.0291883182 0.0292855687 0.0293394849 0.0293557569
1542.6526605982338 0.029346399 0.0293244198 0.0293012373 0.0292857829 0.0292848609 0.0293006338
1543.3758354999302 0.0293302331 0.0293661095 0.029398229 0.0294175874 0.0294181556 0.0293985847
1544.0990104016266 0.0293615703 0.0293131825 0.0292618573 0.0292188302 0.0291969646 0.0292091556
1544.8221853033228 0.0292637721 0.0293594077 0.029479783 0.0295964666 0.029680185 0.0297146346
1545.5453602050193 0.0296966471 0.0296341032 0.029538298 0.0294203535 0.029288901 0.0291502606
1546.2685351067157 0.0290104579 0.0288750231 0.0287501775 0.0286429245 0.0285596158 0.0285046306
1546.9917100084122 0.0284792967 0.028481314 0.028505126 0.0285435878 0.0285909697 0.0286435969
1547.7148849101084 0.0287011843 0.0287655778 0.0288387258 0.0289206356 0.0290084034 0.0290970411
1548.4380598118048 0.0291808061 0.0292555485 0.0293196347 0.0293736253 0.0294189714 0.0294564497
1549.1612347135012 0.0294851381 0.0295031872 0.0295095723 0.0295059178 0.0294979755 0.0294940732
1549.8844096151975 0.0295007061 0.0295185074 0.029539682 0.0295513496 0.0295393262 0.0294954926
1550.6075845168939 0.0294203181 0.0293227527 0.0292173419 0.0291195754 0.0290437937 0.0289988052
1551.3307594185903 0.0289870091 0.0290047564 0.0290439352 0.0290943831 0.029146079 0.0291909762
1552.0539343202865 0.0292227287 0.0292376149 0.0292345304 0.0292147901 0.0291829314 0.029144343
1552.777109221983 0.0291048717 0.0290682372 0.0290336255 0.0289961826 0.0289482959 0.0288830958
1553.5002841236794 0.0287975483 0.0286969021 0.028595889 0.028521331 0.0285051614 0.028572781
1554.2234590253759 0.0287232026 0.0289207064 0.0291106105 0.0292492043 0.0293233916 0.0293429587
1554.9466339270721 0.0293283183 0.0292991102 0.0292709656 0.0292535983 0.0292501617 0.0292599779
1555.6698088287685 0.0292789061 0.0293029379 0.0293272547 0.0293475688 0.0293593723 0.029357139
1556.3929837304649 0.029335089 0.0292880516 0.0292122401 0.0291061103 0.0289709643 0.0288101882
1557.1161586321612 0.0286288373 0.028433023 0.028230438 0.0280281585 0.0278324727 0.0276498701
1557.8393335338576 0.027491631 0.027378194 0.0273405053 0.0274105202 0.0276046377 0.0278980453
1558.562508435554 0.0282247793 0.0285046659 0.0286867786 0.0287621431 0.0287497174 0.0286818221
1559.2856833372502 0.0285946149 0.0285296813 0.0285301767 0.0286388174 0.028879201 0.0292281881
1560.0088582389467 0.0296061505 0.0299165305 0.0301068705 0.0301795006 0.0301669985 0.0301032849
1560.7320331406431 0.0300127733 0.0299099274 0.0298017133 0.0296915025 0.029581178 0.0294718035
1561.4552080423396 0.0293649044 0.0292626023 0.0291671976 0.029082302 0.0290114861 0.0289588142
1562.1783829440358 0.0289277192 0.0289198924 0.0289345533 0.02896774 0.0290132575 0.0290635601
1562.9015578457322 0.029112028 0.0291549023 0.02919087 0.0292214882 0.0292486716 0.029273944
1563.6247327474287 0.0292970538 0.029316904 0.0293318983 0.029341612 0.0293473192 0.0293515734
1564.3479076491249 0.0293568913 0.0293640886 0.0293702222 0.0293695834 0.0293547288 0.0293205548
1565.0710825508213 0.0292671379 0.0292000119 0.029127866 0.0290599819 0.0290045068 0.0289673507
1565.7942574525177 0.028951589 0.0289580356 0.0289856978 0.0290323142 0.0290937815 0.0291655324
1566.517432354214 0.029242292 0.0293183941 0.0293890461 0.0294506345 0.0295008831 0.0295390431
1567.2406072559104 0.0295653939 0.0295800082 0.029582845 0.0295738 0.0295531582 0.0295225158
1567.9637821576068 0.0294852089 0.0294455644 0.0294073056 0.0293723494 0.0293384921 0.0293002091
1568.6869570593033 0.0292495228 0.0291800257 0.0290910881 0.0289912242 0.0288989265 0.0288388673
1569.4101319609995 0.0288370624 0.0289079212 0.0290445369 0.0292163156 0.0293830205 0.0295121595
1570.1333068626959 0.0295903292 0.0296225026 0.0296226796 0.0296071433 0.0295880605 0.0295735523
1570.8564817643924 0.029566139 0.029564118 0.0295623448 0.0295545068 0.0295349993 0.0295002442
1571.5796566660886 0.0294492524 0.0293839071 0.0293091759 0.0292321928 0.0291610323 0.0291038789
1572.302831567785 0.0290662888 0.0290503819 0.0290538892 0.0290709659 0.0290933214 0.02911295
1573.0260064694814 0.029124571 0.0291271936 0.0291247834 0.0291243587 0.0291345268 0.0291624852
1573.7491813711777 0.0292117428 0.029281104 0.0293645132 0.0294531528 0.0295359921 0.029602496
1574.4723562728741 0.029644886 0.0296565928 0.0296344925 0.0295773838 0.0294860601 0.0293619968
1575.1955311745705 0.0292070657 0.0290234238 0.0288138706 0.028585732 0.0283576082 0.028164003
1575.918706076267 0.0280568935 0.0280808583 0.0282349288 0.028462952 0.0286930781 0.0288812201
1576.6418809779632 0.0290144607 0.0291007962 0.029155504 0.0291939881 0.0292289313 0.0292680245
1577.3650558796596 0.0293143876 0.0293660387 0.0294180848 0.029464677 0.0295018051 0.0295289345
1578.0882307813561 0.0295485836 0.0295646507 0.0295811072 0.0295997299 0.0296193454 0.02963694
1578.8114056830523 0.0296480432 0.0296491086 0.0296384655 0.0296170041 0.0295867473 0.0295516681
1579.5345805847487 0.0295149982 0.0294795707 0.0294472668 0.0294193607 0.0293962788 0.0293782689
1580.2577554864451 0.0293653999 0.0293575302 0.0293543395 0.0293560401 0.0293632727 0.0293770637
1580.9809303881414 0.0293986909 0.0294290762 0.0294682942 0.0295151398 0.0295667779 0.029619772
1581.7041052898378 0.0296703577 0.0297156293 0.0297535583 0.0297833662 0.0298048723 0.0298181791
1582.4272801915342 0.0298231486 0.029819563 0.0298070014 0.0297856722 0.0297564697 0.029721342
1583.1504550932307 0.0296831299 0.0296457373 0.0296129957 0.0295888036 0.0295760352 0.0295758937
1583.8736299949269 0.029587172 0.0296063274 0.029628532 0.0296480078 0.0296606384 0.0296654273
1584.5968048966233 0.0296657104 0.0296681225 0.0296810362 0.0297117252 0.0297631752 0.0298328362
1585.3199797983198 0.0299122352 0.0299899802 0.0300548486 0.0300988816 0.0301199406 0.0301215742
1586.043154700016 0.0301111676 0.0300966091 0.0300835408 0.0300737396 0.0300647561 0.0300518312
1586.7663296017124 0.03002939 0.0299937427 0.0299432259 0.029878905 0.0298037715 0.0297224764
1587.4895045034089 0.029639991 0.0295617059 0.0294934716 0.0294402801 0.0294065624 0.029394472
1588.2126794051051 0.0294041503 0.0294329412 0.029475918 0.0295280125 0.0295837317 0.0296388566
1588.9358543068015 0.0296902973 0.0297356397 0.0297724362 0.0297982711 0.0298105497 0.0298072137
1589.6590292084979 0.0297881216 0.0297552627 0.0297127198 0.029665852 0.029620409 0.0295812488
1590.3822041101944 0.029551385 0.0295330845 0.029526772 0.0295323394 0.0295489021 0.0295747239
1591.1053790118906 0.029607676 0.029645063 0.0296842661 0.0297236126 0.0297624655 0.0298017133
1591.828553913587 0.0298428442 0.0298869628 0.0299334265 0.0299799684 0.030022217 0.0300557017
1592.5517288152835 0.0300766863 0.0300838239 0.030078426 0.0300637614 0.0300439131 0.0300222896
1593.2749037169797 0.0300004538 0.0299780164 0.0299530234 0.0299229901 0.0298866425 0.0298446193
1593.9980786186761 0.0297997966 0.0297570713 0.0297226179 0.0297023244 0.029700337 0.029718183
1594.7212535203726 0.0297535229 0.0298014283 0.0298548415 0.0299061649 0.0299494732 0.0299808197
1595.4444284220688 0.029999353 0.0300073065 0.0300087258 0.0300085489 0.0300111044 0.0300192349
1596.1676033237652 0.030034503 0.0300568733 0.0300861318 0.0301217511 0.0301630907 0.030208556
1596.8907782254616 0.0302554462 0.0302996058 0.0303354543 0.0303582307 0.0303644836 0.0303535052
1597.6139531271581 0.0303274244 0.0302910078 0.030250011 0.0302094445 0.0301732142 0.0301433448
1598.3371280288543 0.0301201884 0.030103391 0.0300919563 0.030085139 0.0300819427 0.0300815161
1599.0603029305507 0.0300825108 0.0300841443 0.0300853513 0.0300864521 0.0300882626 0.0300922766
1599.7834778322472 0.0301005151 0.0301151462 0.0301380176 0.0301706567 0.0302138478 0.0302676298
1600.5066527339434 0.0303302314 0.0303984564 0.0304673314 0.0305304229 0.030581506 0.0306159928
1601.2298276356398 0.0306318142 0.0306309965 0.030617984 0.0305995308 0.0305819679 0.0305703785
1601.9530025373363 0.0305682812 0.0305767786 0.0305957627 0.0306239929 0.0306594782 0.0306991264
1602.6761774390325 0.0307395607 0.0307765845 0.0308067463 0.0308280531 0.0308408607 0.0308481529
1603.3993523407289 0.0308543779 0.0308634136 0.0308776796 0.0308966059 0.0309172049 0.0309354216
1604.1225272424253 0.030947946 0.0309536047 0.0309535321 0.0309501532 0.0309459548 0.0309417918
1604.8457021441218 0.0309362058 0.0309259929 0.0309079196 0.0308804531 0.0308446307 0.0308041144
1605.568877045818 0.0307632126 0.0307261888 0.0306950007 0.0306690782 0.03064657 0.0306252018
1606.2920519475144 0.0306042954 0.0305855237 0.0305722281 0.0305689573 0.0305791963 0.0306044016
1607.0152268492109 0.0306429788 0.030690698 0.0307422634 0.0307914875 0.0308341011 0.0308678597
1607.7384017509071 0.0308923014 0.0309091285 0.0309208706 0.0309307259 0.0309411865 0.0309539251
1608.4615766526035 0.0309688691 0.0309847742 0.0309997909 0.031011926 0.0310204681 0.031026233
1609.1847515543 0.0310307872 0.0310361981 0.0310433153 0.0310516078 0.0310586896 0.0310622491
1609.9079264559962 0.0310609322 0.0310554504 0.0310489032 0.0310456641 0.0310499351 0.0310647767
1610.6311013576926 0.0310906153 0.0311254263 0.0311651547 0.0312053468 0.0312423389 0.0312734246
1611.3542762593891 0.0312974602 0.0313138068 0.0313227102 0.0313239917 0.0313178301 0.0313049033
1612.0774511610855 0.0312858149 0.0312619582 0.0312349685 0.0312067363 0.0311795007 0.0311562903
1612.8006260627817 0.0311401282 0.0311342906 0.0311409477 0.031159671 0.0311876535 0.0312194452
1613.5238009644781 0.0312489625 0.0312713236 0.0312857814 0.0312966779 0.0313128084 0.0313444696
1614.2469758661746 0.0313994251 0.031480249 0.0315822549 0.0316941217 0.0318005644 0.0318875983
1614.9701507678708 0.0319444425 0.0319653414 0.031949684 0.0318995081 0.0318174623 0.0317057408
1615.6933256695672 0.0315666497 0.0314041264 0.0312268157 0.0310536716 0.0309174545 0.0308646578
1616.4165005712637 0.0309453849 0.0311790016 0.0315199383 0.0318661332 0.0321262181 0.0322621018
1617.1396754729599 0.032284338 0.0322251655 0.032117907 0.0319910571 0.0318647772 0.0317554325
1617.8628503746563 0.031674128 0.0316266231 0.0316143632 0.0316339284 0.0316788666 0.0317402817
1618.5860252763528 0.0318088718 0.0318765081 0.0319359899 0.0319819599 0.0320106 0.0320193768
1619.3092001780492 0.0320068933 0.0319734737 0.0319219381 0.0318572186 0.0317869447 0.0317205712
1620.0323750797454 0.031666752 0.0316324309 0.031620957 0.0316312201 0.0316586941 0.0316961557
1620.7555499814418 0.0317366123 0.0317742191 0.0318056978 0.0318299793 0.0318472721 0.0318579674
1621.4787248831383 0.0318619236 0.0318578593 0.0318438485 0.031817928 0.031778641 0.0317258835
1622.2018997848345 0.0316604413 0.031585142 0.0315037258 0.0314216502 0.0313463919 0.0312868468
1622.9250746865309 0.03125377 0.0312585421 0.031309709 0.0314072967 0.0315372162 0.0316718109
1623.6482495882274 0.0317778923 0.0318323299 0.0318296589 0.031779211 0.0316978283 0.0316028893
1624.3714244899236 0.0315102823 0.0314314105 0.0313731022 0.0313379504 0.0313248821 0.031330578
1625.09459939162 0.0313523039 0.031389486 0.031443201 0.0315159112 0.0316075198 0.0317142606
1625.8177742933165 0.0318273753 0.0319352746 0.0320249386 0.0320858322 0.0321123749 0.0321036689
1626.5409491950127 0.0320635028 0.0319981165 0.0319155194 0.0318225995 0.031726025 0.0316328593
1627.2641240967091 0.0315516479 0.031492006 0.0314642899 0.0314741917 0.0315194391 0.031587638
1627.9872989984055 0.0316618681 0.031726595 0.0317736827 0.0318035223 0.0318227038 0.0318398885
1628.710473900102 0.0318624936 0.031893909 0.0319327451 0.0319740064 0.0320104957 0.032036677
1629.4336488017982 0.0320506953 0.0320542604 0.032051228 0.0320452377 0.0320377089 0.0320265442
1630.1568237034946 0.0320069976 0.0319741853 0.0319251828 0.0318608917 0.0317864828 0.0317101628
1630.8799986051911 0.0316406637 0.0315851793 0.0315474421 0.0315275267 0.0315228216 0.0315291993
1631.6031735068873 0.0315430239 0.0315617658 0.0315853544 0.0316148959 0.0316522084 0.0316982567
1632.3263484085837 0.0317528285 0.031813506 0.031876687 0.0319375955 0.031992767 0.0320396014
1633.0495233102802 0.0320777707 0.0321075246 0.0321291424 0.0321411677 0.0321403481 0.0321210809
1633.7726982119764 0.0320774503 0.0320045017 0.0318996496 0.0317636654 0.0316003226 0.0314170904
1634.4958731136728 0.031224288 0.0310348086 0.0308664367 0.0307407696 0.0306846891 0.0307247303
1635.2190480153693 0.0308778919 0.031134611 0.0314503983 0.0317605659 0.032006748 0.0321580805
1635.9422229170657 0.0322145671 0.0321926549 0.0321159773 0.0320072472 0.0318874195 0.031774506
1636.6653978187619 0.0316822529 0.0316225216 0.0316025689 0.0316244103 0.031683322 0.0317671262
1637.3885727204583 0.0318578593 0.0319341719 0.0319796056 0.0319855623 0.031952966 0.0318896323
1638.1117476221548 0.0318073034 0.0317183249 0.0316328928 0.0315588824 0.0314996652 0.0314551704
1638.834922523851 0.0314211175 0.0313917659 0.0313615613 0.0313272662 0.0312895924 0.031252984
1639.5580974255474 0.0312243588 0.031211257 0.0312184487 0.0312466472 0.0312916897 0.0313451812
1640.2812723272439 0.0313965045 0.0314365029 0.0314595886 0.0314650014 0.031456098 0.0314390324
1641.0044472289401 0.0314198323 0.0314018466 0.0313851759 0.0313669778 0.0313432217 0.0313105285
1641.7276221306365 0.0312680826 0.0312181637 0.0311655812 0.0311164204 0.0310752746 0.0310460906
1642.450797032333 0.0310300756 0.0310280472 0.0310405754 0.0310689043 0.0311148204 0.0311792865
1643.1739719340294 0.0312610678 0.0313564353 0.031457983 0.0315571688 0.0316455811 0.0317170061
1643.8971468357256 0.031769298 0.0318038091 0.0318244509 0.0318353623 0.0318394601 0.0318370722
1644.620321737422 0.0318261646 0.0318025611 0.0317618139 0.0317003615 0.0316176042 0.0315163732
1645.3434966391185 0.0314056911 0.0313023739 0.0312303398 0.0312145688 0.0312670507 0.0313727111
1646.0666715408147 0.0314895101 0.0315720998 0.031595476 0.0315558873 0.0314648226 0.0313395187
1646.7898464425111 0.0311995447 0.0310644917 0.0309515055 0.0308743697 0.0308385827 0.030840788
1647.5130213442076 0.0308702439 0.0309163872 0.0309737436 0.031042248 0.0311234687 0.0312158149
1648.2361962459038 0.0313105993 0.0313940085 0.0314512141 0.0314725526 0.0314581282 0.0314159505
1648.9593711476002 0.0313596055 0.031302873 0.0312578268 0.0312316939 0.0312262811 0.0312382448
1649.6825460492967 0.0312613882 0.0312893055 0.0313164778 0.031339623 0.0313575044 0.0313698277
1650.4057209509931 0.031376522 0.0313772708 0.0313715003 0.0313584283 0.031337738 0.0313091762
1651.1288958526893 0.0312724635 0.0312275998 0.0311740544 0.031111652 0.031039862 0.0309586562
1651.8520707543857 0.030867042 0.0307645276 0.0306488108 0.0305165946 0.0303643066 0.0301926062
1652.5752456560822 0.0300135892 0.0298534222 0.0297484845 0.0297330152 0.029825313 0.0300110336
1653.2984205577784 0.0302464571 0.0304791667 0.0306726694 0.0308133978 0.03090767 0.0309733525
1654.0215954594748 0.0310336351 0.0311112236 0.0312197655 0.0313581079 0.0315057561 0.0316326432
1654.7447703611713 0.0317111611 0.0317286626 0.0316892415 0.0316068791 0.031500522 0.0313886665
1655.4679452628675 0.0312877372 0.0312080178 0.0311525874 0.031117525 0.0310937837 0.0310709681
1656.1911201645639 0.0310412515 0.0310024954 0.0309584085 0.0309174545 0.0308886357 0.0308785681
1656.9142950662604 0.0308886357 0.0309142526 0.0309453849 0.0309699364 0.0309773013 0.030961005
1657.6374699679568 0.0309204422 0.0308615286 0.0307942983 0.0307303146 0.0306784306 0.0306432992
1658.360644869653 0.0306237433 0.0306132194 0.0306025185 0.0305829998 0.0305497255 0.0305025186
1659.0838197713495 0.0304465387 0.0303899273 0.0303419922 0.0303100143 0.0302983969 0.0303079188
1659.8069946730459 0.0303370897 0.030382501 0.0304405335 0.0305068195 0.0305764228 0.0306434054
1660.5301695747421 0.0307014734 0.0307445396 0.0307686888 0.0307729933 0.0307602603 0.0307356492
1661.2533444764385 0.0307055265 0.0306752305 0.0306475312 0.0306229964 0.030601522 0.0305839591
1661.976519378135 0.0305732228 0.0305765644 0.0306024104 0.0306598693 0.0307529699 0.03087526
1662.6996942798312 0.0310087595 0.0311284531 0.0312148537 0.0312609263 0.0312723927 0.0312604643
1663.4228691815276 0.0312368926 0.0312099401 0.0311834868 0.0311579276 0.0311305523 0.031097414
1664.1460440832241 0.0310538504 0.0309968386 0.0309259221 0.0308443811 0.0307589788 0.0306795333
1664.8692189849205 0.0306168813 0.0305791963 0.0305703785 0.0305876564 0.0306221787 0.0306607932
1665.5923938866167 0.030690521 0.0307027176 0.0306939706 0.0306675844 0.0306307487 0.0305912476
1666.3155687883132 0.0305542387 0.0305204336 0.0304867364 0.0304489564 0.0304044615 0.0303545352
1667.0387436900096 0.0303042941 0.0302618761 0.030235162 0.030229371 0.0302447174 0.0302769747
1667.7619185917058 0.0303178318 0.0303557441 0.0303786267 0.0303764232 0.0303424187 0.0302767251
1668.4850934934022 0.0301861074 0.0300866291 0.0300010573 0.0299583133 0.029988382 0.030108327
1669.2082683950987 0.030306248 0.0305332299 0.0307263676 0.0308374446 0.0308528487 0.0307872202
1669.9314432967949 0.0306673013 0.0305201486 0.0303663686 0.0302217696 0.030095933 0.0299933534
1670.6546181984913 0.029916672 0.029866837 0.0298456848 0.0298549123 0.0298945941 0.0299594123
1671.3777931001878 0.0300364196 0.0301085059 0.0301599298 0.0301824491 0.0301775113 0.0301530752
1672.1009680018842 0.0301195141 0.0300848894 0.0300542098 0.0300291423 0.0300089382 0.0299928915
1672.8241429035804 0.0299818143 0.0299782995 0.029986145 0.0300085135 0.0300454032 0.0300928447
1673.5473178052769 0.0301422793 0.0301831234 0.0302032977 0.0301932469 0.0301463977 0.0300610978
1674.2704927069733 0.0299402438 0.029792415 0.0296335351 0.029486876 0.0293859635 0.0293736253
1674.9936676086695 0.0294878688 0.0297383722 0.0300808065 0.0304305106 0.0307061318 0.0308723077
1675.716842510366 0.0309378412 0.0309302621 0.0308778919 0.0308009144 0.0307121072 0.030617984
1676.4400174120624 0.030521607 0.0304264948 0.0303373374 0.0302606318 0.0302038677 0.0301724318
1677.1631923137586 0.0301678497 0.030186072 0.0302192122 0.0302564409 0.0302878805 0.0303066745
1677.886367215455 0.0303097311 0.0302977934 0.0302733853 0.0302403122 0.0302025173 0.0301638022
1678.6095421171515 0.0301287826 0.0301024672 0.0300891157 0.0300919209 0.0301110614 0.0301435571
1679.3327170188479 0.0301830173 0.0302228704 0.0302580036 0.0302872416 0.0303139947 0.0303443726
1680.0558919205441 0.0303850938 0.0304388981 0.0305034425 0.0305708051 0.0306313876 0.0306757279
1680.7790668222406 0.0306980591 0.0306974556 0.030676866 0.0306411665 0.0305954069 0.0305438247
1681.502241723937 0.0304886214 0.0304305106 0.0303691756 0.0303042587 0.0302359071 0.0301656481
1682.2254166256332 0.0300956499 0.0300298873 0.0299732219 0.0299312621 0.029910177 0.0299151111
1682.9485915273297 0.0299479812 0.0300048199 0.0300751589 0.0301449075 0.0302001368 0.0302322488
1683.6717664290261 0.0302384645 0.0302212723 0.0301862489 0.030142244 0.0301019698 0.0300819427
1684.3949413307223 0.0301012248 0.0301752388 0.0303032286 0.0304609332 0.030607637 0.0307092257
1685.1181162324187 0.0307511557 0.0307377111 0.0306828041 0.030601522 0.0305072106 0.0304100756
1685.8412911341152 0.030318968 0.0302410591 0.0301813837 0.0301439129 0.0301295295 0.030136276
1686.5644660358116 0.0301585812 0.0301876701 0.0302127469 0.0302219819 0.0302066021 0.0301633049
1687.2876409375078 0.0300958622 0.0300145485 0.0299339239 0.0298684705 0.0298280455 0.0298152696
1688.0108158392043 0.0298239645 0.0298424195 0.0298567228 0.029857574 0.0298427381 0.0298171509
1688.7339907409007 0.0297887605 0.0297644529 0.0297469944 0.0297347885 0.0297233984 0.0297084618
1689.4571656425969 0.0296883807 0.029666137 0.0296486821 0.0296443198 0.0296592545 0.0296947304
1690.1803405442934 0.0297453627 0.0298016071 0.0298534576 0.0298937075 0.0299203284 0.0299350601
1690.9035154459898 0.0299430117 0.0299505033 0.0299638156 0.0299872104 0.0300223604 0.0300674196
1691.626690347686 0.0301168859 0.0301624164 0.030193815 0.030202765 0.0301836915 0.0301369522
1692.3498652493824 0.0300683416 0.0299888086 0.0299102478 0.0298437681 0.0297963545 0.0297693498
1693.0730401510789 0.0297595207 0.0297614373 0.0297700949 0.0297826566 0.0297991578 0.0298215151
1693.7962150527753 0.0298516471 0.0298890211 0.0299306232 0.0299702771 0.030000383 0.0300138034
1694.5193899544715 0.0300046429 0.0299697798 0.0299089346 0.0298255254 0.0297269113 0.0296271499
1695.242564856168 0.0295539387 0.0295484066 0.029662801 0.0299286712 0.0303132478 0.0307134222
1695.9657397578644 0.0310234204 0.031199187 0.0312509574 0.03121325 0.031121226 0.0310038477
1696.6889146595606 0.0308833718 0.0307755172 0.0306933653 0.0306448638 0.0306333788 0.0306574162
1697.4120895612571 0.0307107549 0.0307839122 0.0308661163 0.0309490487 0.0310272295 0.0310989451
1698.1352644629535 0.0311642643 0.0312236473 0.0312760249 0.0313190408 0.0313483849 0.0313589983
1698.8584393646497 0.0313463546 0.0313070752 0.0312394556 0.0311425496 0.0310174786 0.0308672208
1699.5816142663462 0.0306973476 0.0305206124 0.0303583015 0.0302393176 0.0301930327 0.0302349478
1700.3047891680426 0.0303600077 0.0305444282 0.0307567026 0.0309661292 0.0311493129 0.0312923342
1701.027964069739 0.031389378 0.0314413831 0.0314542092 0.0314363241 0.0313976444 0.0313483141
1701.7511389714352 0.031298779 0.0312565118 0.0312262103 0.0312073771 0.0311944168 0.0311785042
1702.4743138731317 0.0311487429 0.0310967732 0.0310190432 0.0309179518 0.0308011975 0.0306798536
1703.1974887748281 0.0305657927 0.0304675791 0.0303908512 0.030337587 0.0303085931 0.0303057861
1703.9206636765243 0.0303332154 0.0303963944 0.0304995328 0.0306400284 0.0308057517 0.0309757013
1704.6438385782208 0.0311275274 0.0312450808 0.0313207507 0.0313554034 0.0313547254 0.0313276947
1705.3670134799172 0.0312839299 0.0312341861 0.0311907139 0.0311660431 0.0311720949 0.0312172733
1706.0901883816134 0.0313010924 0.0314111412 0.0315239988 0.0316158608 0.0316693895 0.0316812545
1706.8133632833099 0.031658981 0.0316163227 0.0315669701 0.0315207914 0.0314824581 0.0314517505
1707.5365381850063 0.0314252488 0.0313998871 0.0313750617 0.0313548334 0.0313467123 0.0313584991
1708.2597130867027 0.0313958637 0.0314594805 0.0315451622 0.0316442959 0.0317479484 0.0318495892
1708.9828879883989 0.0319460444 0.0320381038 0.0321281813 0.0322189182 0.0323108211 0.032402169
1709.7060628900954 0.0324884281 0.0325640291 0.0326233543 0.0326615386 0.0326760076 0.0326674692
1710.4292377917918 0.0326399654 0.0326008871 0.0325593501 0.0325259231 0.0325090326 0.0325143561
1711.152412693488 0.0325426012 0.0325894952 0.0326472856 0.0327071585 0.0327630006 0.0328131355
1711.8755875951845 0.0328609869 0.0329128802 0.032974828 0.0330492593 0.0331334323 0.0332196988
1712.5987624968809 0.0332979634 0.0333593935 0.0333986469 0.0334151052 0.0334124565 0.0333968215
1713.3219373985771 0.0333740637 0.0333491974 0.0333261937 0.0333076231 0.0332954973 0.0332909524
1714.0451123002736 0.0332940295 0.0333037265 0.0333183222 0.0333384648 0.0333687328 0.0334186852
1714.76828720197 0.0335009955 0.0336272866 0.0337994881 0.0340030789 0.034208592 0.0343847536
1715.4914621036664 0.0345120206 0.0345870033 0.0346208028 0.0346309245 0.0346355513 0.0346471444
1716.2146370053626 0.0346702896 0.0347005092 0.034726996 0.0347368307 0.0347206444 0.034677539
1716.9378119070591 0.0346195139 0.0345713235 0.0345612764 0.0346056633 0.0346912146 0.0347831734
1717.6609868087555 0.0348482206 0.0348754004 0.0348742865 0.0348670706 0.0348793156 0.0349339657
1718.3841617104517 0.0350453705 0.0352111682 0.0354097746 0.0356076807 0.0357770398 0.0359055027
1719.1073366121482 0.0359968171 0.0360633843 0.0361193344 0.0361755453 0.0362384282 0.0363106504
1719.8305115138446 0.0363921784 0.0364815071 0.0365762226 0.036673665 0.0367713086 0.0368661247
1720.5536864155408 0.0369554795 0.0370372385 0.0371099524 0.0371734761 0.0372284167 0.0372754559
1721.2768613172373 0.0373150259 0.037347164 0.0373716801 0.0373892672 0.0374016538 0.0374119841
1722.0000362189337 0.0374243706 0.0374430083 0.0374715067 0.0375122502 0.0375674516 0.0376390629
1722.7232111206301 0.0377288982 0.0378389992 0.0379692316 0.0381165445 0.038273491 0.0384289064
1723.4463860223264 0.0385705754 0.0386882797 0.0387778282 0.0388423204 0.0388905145 0.0389333144
1724.1695609240228 0.0389806852 0.0390388258 0.0391091928 0.0391893983 0.0392750241 0.0393621922
1724.8927358257192 0.0394497365 0.0395385697 0.0396309793 0.0397283472 0.0398293696 0.0399301574
1725.6159107274154 0.0400243215 0.0401056446 0.0401712433 0.0402224176 0.0402655676 0.0403102115
1726.3390856291119 0.0403669327 0.0404431894 0.0405416451 0.0406585038 0.0407858007 0.0409130603
1727.0622605308083 0.0410310701 0.0411351286 0.0412258729 0.0413094237 0.04139423 0.0414882749
1727.7854354325045 0.0415963046 0.0417171307 0.0418445542 0.0419690609 0.0420808978 0.0421721712
1728.508610334201 0.0422397964 0.0422846824 0.0423118174 0.042327635 0.0423390307 0.0423535295
1729.2317852358974 0.0423777848 0.0424194336 0.0424855649 0.0425812714 0.0427058414 0.0428508557
1729.9549601375938 0.0430002697 0.0431336313 0.0432347171 0.0432973467 0.0433267094 0.0433361158
1730.6781350392901 0.0433405116 0.0433531031 0.0433807857 0.0434226729 0.0434725881 0.0435215533
1731.4013099409865 0.0435627252 0.0435937867 0.0436174162 0.0436392874 0.0436633937 0.0436888598
1732.1244848426829 0.0437080599 0.0437081344 0.043676585 0.0436052158 0.043494232 0.0433525555
1732.8476597443791 0.0431995057 0.0430612564 0.0429639444 0.0429246239 0.0429383405 0.0429790504
1733.5708346460756 0.0430128165 0.0430209376 0.0430091955 0.0430055 0.0430509746 0.0431894436
1734.294009547772 0.0434479788 0.0438069701 0.0441888534 0.0444907099 0.0446505323 0.0446662121
1735.0171844494682 0.0445765071 0.0444272831 0.0442569405 0.0440909564 0.0439419746 0.0438145548
1735.7403593511647 0.0437064096 0.0436110795 0.0435210429 0.0434298888 0.0433342867 0.0432340577
1736.4635342528611 0.0431313291 0.0430294611 0.0429330356 0.0428470522 0.0427768081 0.0427273028
1737.1867091545575 0.0427020043 0.0427006148 0.0427180901 0.0427448153 0.0427667163 0.0427696779
1737.9098840562538 0.0427436456 0.042683322 0.0425900407 0.0424685366 0.042326536 0.0421708561
1738.6330589579502 0.042006541 0.0418375134 0.0416675247 0.041501727 0.0413487442 0.0412200801
1739.3562338596466 0.0411288626 0.0410847887 0.0410878137 0.0411213972 0.0411557816 0.0411632136
1740.0794087613428 0.041127041 0.0410469845 0.040932212 0.04079457 0.0406444222 0.0404883586
1740.8025836630393 0.0403317697 0.0401786938 0.040032208 0.0398960859 0.0397731178 0.0396641977
1741.5257585647357 0.0395678245 0.0394797102 0.0393940806 0.0393042602 0.0392053202 0.0390948728
1742.2489334664319 0.0389736891 0.038845256 0.0387141779 0.0385855325 0.0384619199 0.0383443162
1742.9721083681284 0.0382306129 0.0381176285 0.0380016342 0.0378799587 0.0377524644 0.0376197323
1743.6952832698248 0.0374831706 0.0373430103 0.0371979475 0.0370452106 0.0368807353 0.0367021486
1744.4184581715213 0.0365089662 0.0363048129 0.0360979848 0.0358988792 0.0357185043 0.0355649553
1745.1416330732175 0.0354413725 0.0353446044 0.0352652483 0.0351907201 0.0351073705 0.0350033827
1745.8648079749139 0.034872707 0.0347156897 0.034538243 0.0343501121 0.0341623463 0.0339845531
1746.5879828766103 0.0338228419 0.0336795934 0.0335514285 0.0334314592 0.0333090536 0.0331735946
1747.3111577783066 0.0330178328 0.0328397937 0.0326432511 0.0324379057 0.0322375484 0.032055866
1748.034332680003 0.0319064967 0.0317990333 0.0317360051 0.0317106955 0.0317067765 0.0317032114
1748.7575075816994 0.0316784754 0.0316186734 0.0315210409 0.031391196 0.0312392414 0.0310747772
1749.4806824833956 0.0309044681 0.0307305269 0.030551929 0.0303676464 0.0301785413 0.0299893413
1750.2038573850921 0.02980881 0.0296479724 0.029518472 0.029430246 0.0293879472 0.0293883383
1750.9270322867885 0.0294176601 0.0294538606 0.0294697825 0.0294446778 0.0293716397 0.0292559024
1751.650207188485 0.0291092284 0.0289437268 0.0287702158 0.0285986848 0.028438719 0.0283009149
1752.3733820901812 0.0281935241 0.0281200241 0.028076157 0.0280505307 0.028025791 0.0279843695
1753.0965569918776 0.0279151462 0.0278156586 0.027692778 0.027558811 0.0274282023 0.0273114294
1753.819731893574 0.0272128563 0.0271305982 0.027058512 0.0269895773 0.0269177612 0.0268397182
1754.5429067952703 0.0267547835 0.0266640857 0.0265694279 0.0264730286 0.0263778493 0.0262867026
1755.2660816969667 0.0262031071 0.0261290651 0.0260652713 0.026010178 0.0259612817 0.0259168576
1755.9892565986631 0.0258784164 0.0258517954 0.0258461684 0.0258720517 0.0259351116 0.0260307584
1756.7124315003593 0.0261410289 0.0262393598 0.0263014175 0.026313493 0.0262759309 0.0261986032
1757.4356064020558 0.0260958467 0.0259801 0.0258614309 0.0257471539 0.0256418679 0.0255496819
1758.1587813037522 0.0254745204 0.0254190788 0.0253843013 0.0253676157 0.0253634006 0.0253636464
1758.8819562054487 0.0253603794 0.0253493488 0.0253309794 0.0253108181 0.0252972953 0.0252992287
1759.6051311071449 0.0253218822 0.0253644176 0.025420133 0.025477577 0.0255238879 0.025547117
1760.3283060088413 0.0255401582 0.0255013295 0.0254350286 0.0253499821 0.0252578221 0.0251714047
1761.0514809105377 0.0251019597 0.0250595901 0.0250515509 0.0250807926 0.0251436681 0.0252283942
1761.774655812234 0.0253168587 0.0253883749 0.0254287403 0.0254330616 0.025403833 0.0253484361
1762.4978307139304 0.025275521 0.0251945779 0.0251153 0.0250463914 0.0249947254 0.0249623675
1763.2210056156268 0.0249461532 0.024937978 0.0249276962 0.0249072369 0.0248736572 0.0248304326
1763.944180517323 0.024786897 0.024754202 0.0247403476 0.0247471519 0.024769146 0.0247954912
1764.6673554190195 0.024813557 0.0248140134 0.0247941222 0.024758026 0.0247150231 0.0246758461
1765.3905303207159 0.0246495437 0.0246399362 0.0246460363 0.02466245 0.0246823691 0.0246988181
1766.1137052224124 0.0247064289 0.0247020107 0.0246842634 0.0246529449 0.024608586 0.0245528687
1766.8368801241086 0.0244887471 0.0244207084 0.0243556947 0.0243016575 0.0242686514 0.0242679846
1767.560055025805 0.0243112594 0.0244069695 0.0245553944 0.0247430485 0.0249398369 0.0251054708
1768.2832299275015 0.0252070446 0.0252306052 0.0251839738 0.0250881985 0.0249688253 0.024849344
1769.0064048291977 0.0247453637 0.0246656761 0.0246113557 0.0245771669 0.0245545525 0.0245351642
1769.7295797308941 0.0245139189 0.0244897641 0.0244650841 0.0244432818 0.0244269129 0.0244176593
1770.4527546325905 0.0244158376 0.0244230926 0.0244425815 0.024479948 0.0245392658 0.0246194918
1771.1759295342868 0.024709411 0.0247880891 0.0248325728 0.0248266794 0.0247675329 0.0246649403
1771.8991044359832 0.0245391261 0.0244174134 0.0243296567 0.0243092272 0.0243812092 0.0245485567
1772.6222793376796 0.024777215 0.025006026 0.0251780059 0.025263546 0.0252667777 0.0252089743
1773.3454542393761 0.0251156855 0.0250082035 0.0249029566 0.0248112772 0.024738593 0.0246863682
1774.0686291410723 0.0246521384 0.0246309228 0.0246177372 0.0246083401 0.0246009417 0.0245960671
1774.7918040427687 0.0245965589 0.0246057101 0.0246271715 0.0246622395 0.0247104634 0.0247675683
1775.5149789444652 0.0248268191 0.0248807464 0.0249226782 0.0249489266 0.0249598753 0.0249588583
1776.2381538461614 0.0249511022 0.0249415562 0.0249337666 0.0249288194 0.0249253791 0.0249209236
1776.9613287478578 0.0249130279 0.0249010623 0.0248864293 0.0248727463 0.0248639043 0.024862254
1777.6845036495542 0.024868045 0.0248785708 0.0248903241 0.0249005705 0.0249084663 0.0249160808
1778.4076785512505 0.0249276254 0.0249461532 0.0249728598 0.0250045527 0.0250343159 0.0250541139
1779.1308534529469 0.0250567812 0.025038844 0.0250019208 0.0249513835 0.0248954128 0.0248416942
1779.8540283546433 0.0247972794 0.0247670058 0.0247540623 0.0247598849 0.0247845463 0.0248249248
1780.5772032563398 0.0248752013 0.0249272045 0.0249726158 0.0250055008 0.0250244532 0.0250321049
1781.300378158036 0.0250340719 0.0250357203 0.0250413716 0.0250522178 0.0250670668 0.0250834953
1782.0235530597324 0.0250990465 0.0251134746 0.0251280088 0.0251444392 0.0251629427 0.0251808502
1782.7467279614289 0.025192121 0.0251904 0.0251702107 0.0251300093 0.0250734203 0.0250077471
1783.4699028631251 0.0249411352 0.0248798337 0.0248266794 0.0247810725 0.0247409791 0.0247059744
1784.1930777648215 0.0246794242 0.024668131 0.0246808622 0.0247240365 0.0247964021 0.0248863604
1784.9162526665179 0.0249751769 0.0250416175 0.0250718053 0.0250629596 0.0250230487 0.0249655955
1785.6394275682142 0.0249050278 0.0248539392 0.0248203631 0.0248073135 0.0248143654 0.0248379409
1786.3626024699106 0.0248734467 0.0249153078 0.024958577 0.0249987617 0.0250315089 0.0250545349
1787.085777371607 0.0250668563 0.0250692777 0.0250641871 0.0250541139 0.0250413716 0.0250268411
1787.8089522733035 0.0250100624 0.0249903388 0.0249671042 0.0249405745 0.0249123257 0.024883518
1788.5321271749997 0.0248551331 0.0248269588 0.0247978773 0.0247669015 0.0247337185 0.0247003622
1789.2553020766961 0.0246703401 0.02464737 0.0246349201 0.0246346742 0.0246456508 0.0246655364
1789.9784769783926 0.0246918034 0.0247233007 0.024761077 0.0248077698 0.0248657987 0.0249355212
1790.7016518800888 0.0250124149 0.0250864439 0.0251435265 0.0251702461 0.0251578875 0.0251045581
1791.4248267817852 0.0250148717 0.0248979032 0.0247666202 0.0246356577 0.0245220512 0.0244465768
1792.1480016834817 0.0244297162 0.0244888514 0.0246275906 0.0248279776 0.0250481814 0.0252404027
1792.8711765851779 0.0253732353 0.0254397374 0.025452666 0.0254313406 0.025393961 0.0253528617
1793.5943514868743 0.0253140498 0.025279209 0.0252474975 0.0252178945 0.0251908917 0.025168946
1794.3175263885707 0.0251550786 0.0251514614 0.0251579918 0.025171686 0.0251879077 0.0252024792
1795.040701290267 0.0252138916 0.0252237935 0.0252364706 0.0252569094 0.0252873562 0.0253256746
1795.7638761919634 0.0253651552 0.0253967717 0.0254125092 0.0254091024 0.0253893938 0.0253607649
1796.4870510936598 0.0253336485 0.0253160857 0.0253121872 0.0253203008 0.0253345612 0.0253459774
1797.2102259953563 0.0253460482 0.0253291875 0.0252943113 0.0252451096 0.0251883287 0.0251327828
1797.9334008970525 0.0250866897 0.0250549912 0.0250400025 0.0250395108 0.0250492692 0.0250628181
1798.6565757987489 0.0250747185 0.025081845 0.0250843018 0.0250854604 0.0250906218 0.0251049437
1799.3797507004454 0.0251305364 0.0251637492 0.0251959469 0.0252170507 0.0252189469 0.0251993537
1800.1029256021416 0.0251618885 0.0251151249 0.0250696987 0.0250351243 0.0250193644 0.0250262078
1800.826100503838 0.0250552725 0.0251019243 0.0251590107 0.0252183862 0.0252724309 0.0253160857
1801.5492754055344 0.0253468547 0.0253647342 0.0253709164 0.0253674034 0.0253564101 0.0253398661
1802.2724503072307 0.0253196694 0.025297191 0.0252735205 0.0252492186 0.0252243895 0.0251992475
1802.9956252089271 0.0251741782 0.0251495652 0.025125552 0.0251019597 0.0250777379 0.0250507798
1803.7188001106235 0.0250188373 0.0249798801 0.0249328185 0.0248788856 0.0248207841 0.0247631818
1804.44197501232 0.0247112699 0.0246695336 0.0246412326 0.0246275906 0.0246275216 0.024638392
1805.1651499140162 0.0246563125 0.0246772841 0.0246980116 0.0247159693 0.0247302447 0.0247413646
1805.8883248157126 0.024750134 0.0247577801 0.0247644801 0.0247689001 0.0247685499 0.0247601308
1806.6114997174091 0.0247408375 0.0247095861 0.0246679559 0.024620438 0.0245734155 0.0245354436
1807.3346746191053 0.0245150402 0.0245189313 0.0245517828 0.0246140901 0.0247023255 0.0248085409
1808.0578495208017 0.0249226075 0.0250321403 0.0251256209 0.0251938757 0.0252321158 0.0252407547
1808.7810244224981 0.0252245665 0.0251914877 0.0251498111 0.0251057856 0.0250623282 0.0250196103
1809.5041993241944 0.0249762293 0.0249318015 0.0248884652 0.024851203 0.0248271357 0.0248227492
1810.2273742258908 0.0248418003 0.0248832367 0.0249414872 0.0250073951 0.0250712428 0.0251262896
1810.9505491275872 0.0251685251 0.0251966156 0.0252102744 0.0252093617 0.0251938403 0.0251651891
1811.6737240292837 0.0251272023 0.025086198 0.0250501465 0.0250265244 0.025019329 0.0250275433
1812.3968989309799 0.025045339 0.0250643976 0.0250767544 0.0250767898 0.0250627492 0.025036037
1813.1200738326763 0.0249996744 0.0249574538 0.0249130279 0.0248705 0.0248344671 0.0248102602
1813.8432487343728 0.0248028934 0.0248155575 0.0248470977 0.0248918328 0.0249409601 0.0249838103
1814.566423636069 0.0250121336 0.0250226986 0.0250174683 0.0250022709 0.024983706 0.0249663685
1815.2895985377654 0.024950996 0.024935171 0.024914993 0.0248885006 0.0248570275 0.024825206
1816.0127734394619 0.0247988235 0.0247826874 0.0247780569 0.0247825813 0.0247908961 0.0247973502
1816.7359483411581 0.0247984733 0.0247933511 0.0247836336 0.0247718468 0.0247605518 0.0247507654
1817.4591232428545 0.0247430485 0.0247386638 0.024740031 0.0247508008 0.0247744787 0.02481254
1818.1822981445509 0.0248633772 0.0249221157 0.0249820203 0.0250361059 0.0250791777 0.0251088049
1818.9054730462474 0.0251251999 0.0251295883 0.0251236912 0.0251093321 0.0250889007 0.025066575
1819.6286479479436 0.0250487775 0.0250429865 0.0250559039 0.0250908323 0.0251454581 0.025212381
1820.35182284964 0.0252805781 0.0253394097 0.0253811032 0.0254026726 0.0254045706 0.0253893584
1821.0749977513365 0.0253579207 0.0253088512 0.0252389628 0.0251461603 0.0250321049 0.024904782
1821.7981726530327 0.0247775298 0.0246656407 0.0245834794 0.024539968 0.0245360062 0.0245662276
1822.5213475547291 0.0246211048 0.0246909969 0.0247674268 0.0248453077 0.024921203 0.0249917079
1823.2445224564256 0.0250530597 0.0251005199 0.0251299758 0.0251395237 0.0251307469 0.0251083132
1823.9676973581218 0.0250789318 0.0250495151 0.0250259284 0.0250122044 0.0250120293 0.0250294376
1824.6908722598182 0.0250692777 0.0251362603 0.0252306052 0.0253449585 0.0254608877 0.0255550239
1825.4140471615146 0.0256069656 0.0256052446 0.0255511571 0.025455758 0.0253353342 0.0252069384
1826.1372220632111 0.0250871461 0.0249888301 0.02491959 0.0248816572 0.0248719044 0.0248834826
1826.8603969649073 0.0249073431 0.0249345377 0.02495756 0.0249712821 0.0249733515 0.0249642283
1827.5835718666037 0.0249474868 0.0249276962 0.0249095187 0.0248961151 0.0248878337 0.0248824302
1828.3067467683002 0.0248755533 0.0248628855 0.0248419754 0.0248140134 0.0247839503 0.0247605164
1829.0299216699964 0.0247537475 0.0247716364 0.0248193108 0.0248970967 0.0250017103 0.0251262542
1829.7530965716928 0.0252605956 0.0253927317 0.0255081467 0.0255946647 0.0256446451 0.0256580021
1830.4762714733893 0.0256397594 0.0255973358 0.02553696 0.025462538 0.0253759045 0.0252789631
1831.1994463750855 0.0251746699 0.0250685047 0.0249686502 0.0248832013 0.0248189606 0.0247791782
1831.9226212767819 0.0247630421 0.0247654282 0.0247800555 0.0248013847 0.0248259418 0.0248534828
1832.6457961784783 0.0248851664 0.0249226429 0.0249658059 0.0250124503 0.0250581503 0.0250990819
1833.3689710801748 0.0251331702 0.0251607299 0.0251837987 0.0252044108 0.0252224244 0.025235733
1834.092145981871 0.0252410006 0.0252363291 0.0252235476 0.0252092909 0.0252032168 0.0252142772
1834.8153208835674 0.0252472162 0.0252991933 0.0253607649 0.025417991 0.025458077 0.0254742391
1835.5384957852639 0.0254668947 0.0254428983 0.0254116673 0.0253808573 0.0253528617 0.0253255349
1836.2616706869601 0.0252935737 0.0252536424 0.0252062008 0.025157325 0.0251156855 0.0250909012
1836.9848455886565 0.0250891112 0.0251110531 0.0251532868 0.0252097473 0.0252746437 0.0253425706
1837.708020490353 0.0254073814 0.0254606772 0.0254900493 0.0254816171 0.0254243836 0.0253146123
1838.4311953920492 0.0251601692 0.0249808282 0.0248047877 0.0246593989 0.0245655272 0.0245312732
1839.1543702937456 0.0245512575 0.0246103387 0.0246891044 0.0247724429 0.0248506758 0.0249200799
1839.8775451954421 0.0249800198 0.0250295084 0.0250657666 0.025083987 0.0250811782 0.0250579044
1840.6007200971385 0.0250190124 0.0249735266 0.024929801 0.0248936228 0.0248667113 0.0248473436
1841.3238949988347 0.0248335544 0.0248262938 0.0248302221 0.02485222 0.0248980094 0.0249680523
1842.0470699005311 0.0250547808 0.0251440536 0.0252209138 0.0252726059 0.0252937134 0.025285637
1842.7702448022276 0.0252538528 0.0252041295 0.0251380857 0.0250539035 0.0249481201 0.0248194523
1843.4934197039238 0.0246754959 0.0245338324 0.0244241785 0.0243828204 0.024438234 0.0245918594
1844.2165946056202 0.0248087514 0.0250338595 0.0252189115 0.0253427811 0.0254104026 0.0254381914
1844.9397695073167 0.0254425835 0.0254330616 0.0254112091 0.0253728144 0.0253122933 0.0252275858
1845.6629444090129 0.0251244977 0.0250163116 0.0249221865 0.0248601139 0.0248429235 0.0248746052
1846.3861193107093 0.0249498039 0.0250549205 0.0251712985 0.0252808593 0.0253678951 0.0254212581
1847.1092942124058 0.0254361536 0.025413001 0.025358025 0.0252818074 0.025199635 0.0251278691
1847.8324691141022 0.0250799488 0.0250640828 0.0250798445 0.0251190569 0.025167577 0.0252100285
1848.5556440157984 0.0252343286 0.0252350308 0.025215717 0.0251885038 0.0251709484 0.0251800064
1849.2788189174948 0.0252260752 0.0253094826 0.0254192557 0.0255353432 0.0256336778 0.0256953333
1850.0019938191913 0.0257086921 0.0256739967 0.0256013423 0.0255074427 0.0254098047 0.0253209695
1850.7251687208875 0.0252477434 0.0251895227 0.025141526 0.025097888 0.0250541829 0.0250092559
1851.4483436225839 0.0249648243 0.0249246079 0.0248921495 0.024870079 0.0248590261 0.024857413
1852.1715185242804 0.0248622205 0.0248697978 0.0248764306 0.0248800796 0.0248808861 0.0248814821
1852.8946934259766 0.0248865709 0.0249011312 0.0249281861 0.0249672811 0.025013363 0.0250571668
1853.617868327673 0.0250888653 0.0251006614 0.0250900239 0.025059659 0.0250170119 0.0249716677
1854.3410432293695 0.024930818 0.0248979032 0.0248721149 0.024850361 0.0248299763 0.0248106103
1855.0642181310659 0.0247954559 0.024789948 0.0247987527 0.0248246435 0.0248663593 0.0249204673
1855.7873930327621 0.0249820203 0.0250467416 0.0251114033 0.0251737572 0.0252315886 0.0252813864
1856.5105679344585 0.0253197737 0.0253439751 0.0253538806 0.0253532473 0.0253478382 0.0253434833
1857.233742836155 0.0253433771 0.0253457315 0.0253449939 0.0253344569 0.0253095534 0.0252717286
1857.9569177378512 0.025228288 0.0251904 0.0251677874 0.0251656808 0.0251821484 0.0252097119
1858.6800926395476 0.0252389628 0.0252635106 0.0252815615 0.0252959616 0.0253093783 0.0253215302
1859.4032675412441 0.0253255703 0.0253105722 0.0252652317 0.0251849219 0.0250754915 0.0249548927
1860.1264424429403 0.0248486064 0.0247792844 0.0247618146 0.0247953497 0.0248652715 0.0249455925
1860.8496173446367 0.0250082724 0.0250326321 0.0250078868 0.0249360818 0.0248284321 0.0247015543
1861.5727922463332 0.0245714169 0.0244513787 0.0243520495 0.0242805649 0.024242688 0.0242420584
1862.2959671480296 0.0242788829 0.0243487917 0.0244413186 0.0245419648 0.024633307 0.0246997662
1863.0191420497258 0.0247319639 0.0247285273 0.0246969257 0.0246503148 0.0246046223 0.0245729946
1863.7423169514223 0.0245620199 0.0245718025 0.0245964527 0.0246271361 0.0246564876 0.0246822294
1864.4654918531187 0.0247066747 0.0247365944 0.0247784071 0.0248343628 0.0249005351 0.0249680169
1865.1886667548149 0.0250242427 0.0250596944 0.0250716303 0.0250656623 0.0250545349 0.0250523593
1865.9118416565113 0.0250703301 0.0251106657 0.0251667351 0.0252244249 0.0252696574 0.0252944157
1866.6350165582078 0.0252998248 0.0252948385 0.025291957 0.0253010541 0.0253244117 0.0253553558
1867.358191459904 0.0253797341 0.0253813844 0.0253472067 0.0252730977 0.0251652244 0.0250389501
1868.0813663616004 0.0249131676 0.0248035248 0.0247213021 0.0246722698 0.0246587675 0.0246812478
1868.8045412632969 0.0247382428 0.0248241536 0.0249264315 0.0250261743 0.0251013283 0.0251338016
1869.5277161649933 0.0251170211 0.025056079 0.0249648932 0.0248586051 0.0247512553 0.0246539973
1870.2508910666895 0.0245742574 0.0245170034 0.024485277 0.0244794227 0.0244976524 0.0245363563
1870.974065968386 0.0245903172 0.0246543828 0.0247239675 0.0247964021 0.0248700436 0.0249439776
1871.6972408700824 0.0250171889 0.0250872858 0.0251517072 0.0252079219 0.0252552573 0.0252952948
1872.4204157717786 0.0253316816 0.0253687035 0.0254078731 0.025446834 0.0254781395 0.0254917368
1873.143590673475 0.0254776124 0.025430778 0.0253528263 0.025253607 0.0251486171 0.0250533056
1873.8667655751715 0.0249809325 0.024938399 0.0249248538 0.0249336958 0.0249551386 0.0249788966
1874.5899404768677 0.0249966905 0.0250037815 0.0249998141 0.0249876007 0.0249724742 0.0249612443
1875.3131153785641 0.024959594 0.0249710362 0.0249940939 0.0250228383 0.0250486024 0.0250609238
1876.0362902802606 0.0250526387 0.0250216816 0.0249726847 0.0249152742 0.0248614121 0.0248219781
1876.759465181957 0.0248031728 0.0248058401 0.0248260126 0.0248573422 0.0248940792 0.024932012
1877.4826400836532 0.0249693859 0.0250065532 0.0250441097 0.025082441 0.025121199 0.0251595713
1878.2058149853497 0.0251961239 0.0252293423 0.0252570491 0.0252761897 0.0252833534 0.0252756979
1878.9289898870461 0.0252512544 0.0252113622 0.0251596067 0.0251011867 0.0250421446 0.0249869693
1879.6521647887423 0.0249377321 0.0248956587 0.0248609912 0.0248351339 0.0248206798 0.0248208195
1880.3753396904388 0.0248375908 0.0248699393 0.0249133091 0.0249602608 0.0250016395 0.0250309128
1881.0985145921352 0.0250442494 0.0250424948 0.0250289813 0.0250089057 0.0249867942 0.0249651391
1881.8216894938314 0.0249447152 0.0249249227 0.0249042548 0.0248806048 0.0248520095 0.0248156972
1882.5448643955278 0.0247700587 0.0247146022 0.0246522445 0.0245892294 0.0245345682 0.0244973712
1883.2680392972243 0.0244852062 0.0245001409 0.0245388802 0.024592841 0.0246523488 0.0247086752
1883.9912141989207 0.0247566234 0.0247952454 0.0248273462 0.0248565711 0.0248859394 0.0249172039
1884.7143891006169 0.0249503646 0.0249853544 0.0250218567 0.0250595901 0.025097046 0.025130501
1885.4375640023134 0.0251549724 0.0251644868 0.0251546912 0.0251257978 0.025082618 0.0250351597
1886.1607389040098 0.02499469 0.0249712113 0.0249704048 0.0249920227 0.0250305608 0.0250775982
1886.883913805706 0.0251247082 0.0251635388 0.025188433 0.025195105 0.0251813065 0.0251452476
1887.6070887074025 0.025087988 0.0250125192 0.024924783 0.0248338003 0.0247493275 0.0246811081
1888.3302636090989 0.0246375501 0.0246244706 0.0246453714 0.0247013438 0.0247911066 0.0249106418
1889.0534385107951 0.0250517968 0.0252010394 0.025341833 0.0254555121 0.0255276486 0.0255521424
1889.7766134124915 0.0255318657 0.0254765935 0.0253971927 0.0253035482 0.0252023377 0.0250987299
1890.499788314188 0.0249998141 0.0249138698 0.0248509925 0.0248209257 0.0248269942 0.0248653423
1891.2229632158844 0.0249227826 0.0249825474 0.025027087 0.0250451975 0.0250360016 0.0250093266
1891.9461381175806 0.0249819849 0.0249710362 0.0249901284 0.0250440035 0.0251276586 0.025229061
1892.6693130192771 0.0253320318 0.0254212916 0.0254837964 0.0255116243 0.0255020317 0.0254566353
1893.3924879209735 0.0253808238 0.0252825804 0.0251717195 0.0250566062 0.024943592 0.0248365719
1894.1156628226697 0.0247358922 0.0246427413 0.0245598815 0.0244930238 0.0244513098 0.0244437028
1894.8388377243662 0.0244741645 0.0245398264 0.0246290639 0.0247256514 0.0248129964 0.0248818677
1895.5620126260626 0.0249324329 0.0249733869 0.0250165556 0.0250708219 0.0251377337 0.0252096429
1896.2851875277588 0.0252723265 0.0253095888 0.0253120121 0.0252787173 0.0252209492 0.0251563061
1897.0083624294552 0.0251061022 0.0250874963 0.0251085255 0.0251660328 0.0252470057 0.0253325943
1897.7315373311517 0.0254013389 0.0254375581 0.0254346784 0.0253977198 0.0253427457 0.0252923798
1898.4547122328481 0.0252704639 0.0252922028 0.0253593959 0.025457127 0.025559064 0.0256322026
1899.1778871345443 0.0256482661 0.0255935416 0.0254715327 0.0253018979 0.0251119304 0.0249294508
1899.9010620362408 0.0247736014 0.0246509816 0.0245580934 0.0244863983 0.0244285949 0.0243816283
1900.6242369379372 0.024348231 0.0243334062 0.0243405905 0.024368206 0.024409527 0.0244541485
1901.3474118396334 0.0244928841 0.0245201942 0.0245364606 0.0245463476 0.0245565865 0.0245731007
1902.0705867413299 0.0245987326 0.0246327817 0.0246724803 0.0247139353 0.024753781 0.024789352
1902.7937616430263 0.0248186793 0.0248417296 0.0248588156 0.0248729922 0.0248886403 0.0249113776
1903.5169365447225 0.0249452423 0.0249908995 0.0250440743 0.0250957813 0.0251345038 0.0251503736
1904.240111446419 0.0251387525 0.0251025558 0.0250500068 0.0249932166 0.0249419082 0.0249002557
1904.9632863481154 0.0248655174 0.0248297304 0.0247838441 0.0247210562 0.0246412326 0.0245496444
1905.6864612498118 0.0244567078 0.0243723411 0.0243029203 0.0242490303 0.024206778 0.0241699945
1906.409636151508 0.0241350345 0.024104422 0.0240876805 0.0240996946 0.0241549667 0.0242622048
1907.1328110532045 0.0244185347 0.0246089362 0.0248073842 0.0249832142 0.0251119304 0.0251795854
1907.8559859549009 0.0251887497 0.0251562372 0.0251069441 0.0250646099 0.0250425655 0.0250416175
1908.5791608565971 0.0250517614 0.0250581857 0.0250485316 0.025019329 0.0249779839 0.0249402225
1909.3023357582936 0.024923414 0.0249410663 0.0249971114 0.0250857417 0.0251927171 0.0252999309
1910.02551065999 0.0253926963 0.0254604649 0.0254986584 0.0255071614 0.0254883282 0.0254453588
1910.7486855616862 0.0253829658 0.0253082197 0.0252293777 0.0251554288 0.0250931475 0.0250453725
1911.4718604633827 0.025009783 0.0249808282 0.0249531381 0.0249239411 0.0248951316 0.0248716939
1912.1950353650791 0.0248589925 0.0248591322 0.0248685349 0.0248793066 0.0248818342 0.0248710271
1912.9182102667755 0.0248471685 0.0248184688 0.0247959476 0.0247892123 0.0248016305 0.0248270296
1913.6413851684717 0.0248514842 0.0248589218 0.0248366073 0.0247803014 0.0246955566 0.0245955419
1914.3645600701682 0.0244972315 0.0244136639 0.0243526809 0.024315184 0.0242966469 0.0242904797
1915.0877349718646 0.0242908299 0.024293879 0.0242978036 0.0243011322 0.0243006777 0.0242918115
1915.8109098735608 0.0242693163 0.0242291987 0.0241718516 0.0241026711 0.0240324866 0.0239743944
1916.5340847752573 0.0239403602 0.0239366498 0.0239620693 0.0240080785 0.0240615532 0.0241093263
1917.2572596769537 0.0241452288 0.0241716057 0.024201557 0.0242543202 0.0243488252 0.0244925339
1917.9804345786499 0.0246754605 0.0248692371 0.0250385981 0.0251551829 0.0252034273 0.0251830611
1918.7036094803464 0.025105821 0.024989251 0.0248516239 0.0247087795 0.0245734863 0.0244537983
1919.4267843820428 0.0243553799 0.024282001 0.024236802 0.0242212825 0.0242340341 0.0242695976
1920.1499592837392 0.0243172515 0.0243628435 0.0243924931 0.024395017 0.024365332 0.0243055485
1920.8731341854354 0.0242250655 0.0241380129 0.0240605026 0.0240084995 0.023994213 0.0240234528
1921.5963090871319 0.0240939856 0.0241946559 0.0243066344 0.0244058818 0.0244713593 0.024488993
1922.3194839888283 0.0244584605 0.0243930556 0.0243176371 0.0242600664 0.0242415667 0.0242715236
1923.0426588905245 0.024343919 0.0244424753 0.0245466288 0.0246421453 0.0247252304 0.0248021558
1923.765833792221 0.0248834118 0.0249765813 0.0250801593 0.025181938 0.0252616853 0.0252957866
1924.4890086939174 0.0252676904 0.0251722466 0.0250194352 0.0248313099 0.0246375501 0.0244684145
1925.2121835956136 0.0243472848 0.0242875014 0.0242907964 0.0243491419 0.0244464371 0.0245639831
1925.9353584973101 0.0246845093 0.0247930009 0.0248791315 0.0249365736 0.0249620862 0.0249557346
1926.6585333990065 0.0249195192 0.0248587821 0.0247829668 0.0247048158 0.0246404968 0.0246042721
1927.3817083007029 0.0246057808 0.0246444587 0.0247102883 0.0247846507 0.024846362 0.0248810966
1928.1048832023992 0.0248844996 0.0248659384 0.0248434842 0.0248369593 0.0248581842 0.0249057636
1928.8280581040956 0.0249632802 0.0250056759 0.0250105187 0.0249648597 0.024872886 0.0247533955
1929.551233005792 0.0246343948 0.0245404579 0.0244865045 0.0244720262 0.0244856272 0.024510378
1930.2744079074882 0.0245330259 0.0245514661 0.0245747827 0.0246188939 0.0246980116 0.0248154178
1930.9975828091847 0.0249582622 0.025099678 0.0252029356 0.0252341181 0.0251749158 0.0250283144
1931.7207577108811 0.0248196982 0.0245915093 0.0243938956 0.0242665838 0.0242290944 0.0242753085
1932.4439326125773 0.0243769325 0.0244931635 0.024583865 0.0246253815 0.0246160198 0.0245753787
1933.1671075142738 0.0245336909 0.024520684 0.0245512575 0.0246187188 0.0246965047 0.0247480646
1933.8902824159702 0.0247421004 0.0246622395 0.0245159864 0.024330778 0.0241493974 0.0240139626
1934.6134573176666 0.023954751 0.023982903 0.0240870845 0.0242374334 0.0243919324 0.0245100614
1935.3366322193629 0.0245601274 0.0245273802 0.0244177636 0.0242574029 0.0240866654 0.0239480287
1936.0598071210593 0.0238785688 0.023898419 0.0240065381 0.0241809934 0.024387341 0.0245882832
1936.7829820227557 0.024750134 0.0248513073 0.0248816926 0.0248397309 0.0247279312 0.024550274
1937.5061569244519 0.0243142731 0.0240354985 0.0237399302 0.0234675743 0.0232622568 0.0231634788
1938.2293318261484 0.0231937114 0.0233501475 0.0236019976 0.0238977894 0.0241825003 0.0244058818
1938.9525067278448 0.0245373026 0.0245677698 0.0245053284 0.0243658237 0.024166001 0.0239204057
1939.675681629541 0.0236434229 0.0233537145 0.0230805166 0.022861518 0.0227378309 0.0227457918
1940.3988565312375 0.0229012631 0.0231951792 0.0235893335 0.0240274798 0.0244427212 0.0247734953
1941.1220314329339 0.0249793883 0.0250447411 0.024982091 0.0248247851 0.0246223658 0.0244259667
1941.8452063346303 0.0242743269 0.0241925549 0.0241825711 0.024228394 0.0242993813 0.0243632291
1942.5683812363266 0.024398312 0.0243990123 0.0243771784 0.024354117 0.0243509635 0.0243790001
1943.291556138023 0.0244396012 0.0245249271 0.02462391 0.0247270893 0.0248292051 0.024930995
1944.0147310397194 0.0250338595 0.0251374189 0.0252348892 0.0253138039 0.0253596064 0.0253611524
1944.7379059414156 0.0253144708 0.0252240747 0.0250980631 0.0249441881 0.0247636735 0.0245502405
1945.4610808431121 0.0242943 0.0239901505 0.0236451011 0.0232848041 0.0229497124 0.0226913616
1946.1842557448085 0.0225587189 0.0225816499 0.0227624457 0.023070069 0.0234489683 0.0238284431
1946.9074306465047 0.0241434071 0.0243518054 0.0244399868 0.0244264565 0.0243524704 0.0242716633
1947.6306055482012 0.0242310222 0.0242584199 0.0243573412 0.0245082397 0.0246774592 0.0248265043
1948.3537804498976 0.024928432 0.0249691755 0.024951769 0.0248900782 0.0248036291 0.0247118305
1949.0769553515941 0.0246295556 0.0245671403 0.0245299395 0.0245188959 0.0245266799 0.024539616
1949.8001302532903 0.0245377235 0.0244978964 0.0244024135 0.0242472775 0.0240473356 0.0238342527
1950.5233051549867 0.0236495454 0.0235324539 0.0235038083 0.0235602632 0.0236734431 0.0238034856
1951.2464800566831 0.0239100065 0.0239680912 0.0239763204 0.0239557307 0.0239382256 0.0239524748
1951.9696549583794 0.0240145922 0.0241216198 0.0242559668 0.0243915822 0.0245059244 0.0245864242
1952.6928298600758 0.0246307477 0.0246449504 0.0246361122 0.0246093571 0.0245648604 0.0245011225
1953.4160047617722 0.0244179741 0.024319144 0.0242128726 0.0241098162 0.0240193903 0.0239470825
1954.1391796634684 0.023892222 0.0238483939 0.0238076523 0.0237620473 0.0237085037 0.0236491244
1954.8623545651649 0.0235918872 0.0235468671 0.0235247947 0.0235307757 0.0235632379 0.0236118641
1955.5855294668613 0.0236620717 0.0236980766 0.0237106383 0.023700526 0.0236808266 0.0236747377
1956.3087043685578 0.0237052497 0.0237885416 0.0239246059 0.0240964014 0.0242727157 0.0244179051
1957.031879270254 0.0245044883 0.0245177746 0.0244601425 0.0243437439 0.024184918 0.0239960328
1957.7550541719504 0.0237831865 0.0235524625 0.023315046 0.023091279 0.0229129642 0.0228116829
1958.4782290736468 0.0228094831 0.0229090173 0.0230900571 0.02331529 0.0235429835 0.023746999
1959.2014039753431 0.0239254106 0.0241028108 0.0243173577 0.0246078484 0.0249933917 0.0254659466
1959.9245788770395 0.0259869955 0.0265003927 0.0269470215 0.0272705369 0.0274289791 0.0273943208
1960.6477537787359 0.0271501392 0.0266951621 0.0260473993 0.0252531506 0.0243831016 0.0235298313
1961.3709286804321 0.0227964222 0.0222659316 0.0219895132 0.0219672769 0.0221494567 0.0224475395
1962.0941035821286 0.0227575228 0.0229981653 0.0231217518 0.0231282171 0.0230559539 0.022965746
1962.817278483825 0.0229132101 0.0229313038 0.0230220277 0.0231595635 0.0233053602 0.0234223548
1963.5404533855215 0.0234913211 0.0235146154 0.0235130414 0.0235124119 0.0235319305 0.0235749222
1964.2636282872177 0.0236271527 0.0236627702 0.0236545485 0.023587551 0.0234621875 0.023294244
1964.9868031889141 0.023103999 0.0229078643 0.0227080137 0.0224955175 0.0222572815 0.0219894443
1965.7099780906105 0.0217096489 0.0214638021 0.0213113148 0.0213113837 0.021501366 0.0218787938
1966.4331529923068 0.0223960765 0.0229707416 0.0235137772 0.0239502341 0.0242400263 0.0243853796
1967.1563278940032 0.0244242847 0.0244127531 0.0244002044 0.0244170986 0.0244667679 0.024529729
1967.8795027956996 0.0245770272 0.0245836899 0.0245390907 0.024450222 0.0243412554 0.0242479444
1968.6026776973958 0.0242127329 0.0242731702 0.0244504679 0.0247423816 0.0251200404 0.0255258214
1969.3258525990923 0.025884185 0.0261257216 0.0262003615 0.0260985568 0.0258524641 0.025529651
1970.0490275007887 0.0252093971 0.0249543656 0.0247999821 0.0247426275 0.0247550104 0.0248011742
1970.7722024024849 0.0248597637 0.0249336958 0.02504576 0.0252193343 0.025460219 0.0257382579
1971.4953773041814 0.0259948745 0.0261583775 0.0261701308 0.0260140467 0.0257241614 0.0253785755
1972.2185522058778 0.0250655562 0.0248608515 0.0247931052 0.0248361863 0.0249193441 0.0249538738
1972.9417271075743 0.0248727817 0.0246470198 0.0243021138 0.0239023045 0.0235371422 0.0232840013
1973.6649020092705 0.0231906343 0.0232637599 0.0234731343 0.0237611029 0.0240541995 0.0242870469
1974.3880769109669 0.0244046915 0.0243757758 0.0241984054 0.0238999948 0.0235363729 0.0231789611
1975.1112518126633 0.0229065381 0.0227835365 0.0228415057 0.0230685323 0.023409592 0.0237839911
1975.8344267143596 0.0241025668 0.0242980141 0.0243481249 0.0242814757 0.0241706241 0.02410887
1976.557601616056 0.0241872296 0.024456216 0.0249178354 0.0255179144 0.0261680558 0.0267594699
1977.2807765177524 0.0271936655 0.027409602 0.0273884274 0.0271592736 0.0267818123 0.0263395086
1978.0039514194486 0.0259180181 0.0255840868 0.0253854599 0.0253399704 0.0254366808 0.0256462973
1978.7271263211451 0.0259294491 0.0262467153 0.0265617482 0.0268476494 0.0270841494 0.0272512734
1979.4503012228415 0.0273292847 0.0272940695 0.0271224156 0.0268028174 0.0263449308 0.0257901177
1980.173476124538 0.0252053235 0.0246759877 0.0242841728 0.0240813773 0.0240797997 0.0242450703
1980.8966510262342 0.0245111845 0.0247962624 0.0250334386 0.025189558 0.0252679717 0.0252989121
1981.6198259279306 0.0253191777 0.0253519136 0.0253939964 0.0254183412 0.0253889021 0.0252825096
1982.343000829627 0.0251048394 0.0248953421 0.0247120764 0.0246160887 0.024644915 0.0247977357
1983.0661757313233 0.0250343159 0.025289394 0.0255010836 0.0256257355 0.0256524477 0.0256012026
1983.7893506330197 0.0255089197 0.0254086461 0.0253175609 0.0252314489 0.0251310989 0.0249930061
1984.5125255347161 0.0248032436 0.0245650709 0.0242977329 0.0240314007 0.0237933714 0.023602698
1985.2357004364123 0.02346614 0.0233817566 0.0233431552 0.0233452171 0.0233875606 0.0234717
1985.9588753381088 0.0235981159 0.0237623621 0.0239521246 0.0241490807 0.0243319348 0.0244777054
1986.6820502398052 0.0245679803 0.0245921053 0.0245496444 0.0244519748 0.0243228227 0.0241970029
1987.4052251415017 0.0241118129 0.0241029505 0.024194831 0.0243916176 0.0246743727 0.0250032898
1988.1284000431979 0.0253279228 0.0255961064 0.0257687047 0.025828762 0.0257831905 0.0256616585
1988.8515749448943 0.0255018212 0.0253464691 0.025228288 0.0251655057 0.0251605548 0.0252000559
1989.5747498465907 0.0252574701 0.0252983496 0.025290763 0.0252116788 0.0250561498 0.024839133
1990.297924748287 0.0245968029 0.0243784394 0.0242302865 0.0241868086 0.0242550559 0.0244152062
1991.0210996499834 0.0246216301 0.0248176623 0.024952611 0.0249897074 0.0249187816 0.0247550104
1991.7442745516798 0.0245326739 0.0242909361 0.0240614135 0.0238610674 0.0236931425 0.0235530231
1992.467449453376 0.0234376024 0.023349449 0.0232999772 0.0233044513 0.0233749039 0.0235155262
1993.1906243550725 0.0237184782 0.0239640642 0.0242260117 0.0244779158 0.0247018356 0.0248903949
1993.9137992567689 0.0250473749 0.0251834132 0.025309097 0.0254259296 0.025525013 0.0255836304
1994.6369741584654 0.0255748089 0.0254747309 0.0252739768 0.0249845125 0.02464246 0.0243044607
1995.3601490601616 0.024031261 0.0238772035 0.0238729343 0.0240175333 0.0242756233 0.0245864242
1996.083323961858 0.0248820782 0.0250968337 0.0251891352 0.0251505841 0.0250069741 0.0248103645
1996.8064988635545 0.0246217698 0.0244997554 0.0244769678 0.0245560259 0.0247064289 0.0248774122
1997.5296737652507 0.0250152573 0.0250801593 0.0250631701 0.0249899179 0.0249124318 0.0248869564
1998.2528486669471 0.0249596294 0.0251434222 0.0254142303 0.025711434 0.0259568505 0.0260813162
1998.9760235686435 0.0260354728 0.0258102305 0.0254348535 0.0249728952 0.0245046634 0.0241061039
1999.6991984703398 0.0238411482 0.0237441994 0.023815982 0.0240236614 0.0243093316 0.0245998539
2000.4223733720362 0.0248235557 0.0249332041 0.02491422 0.0247926135 0.0246202629 0.024461614
2001.1455482737326 0.0243664887 0.0243487209 0.0243821554 0.0244098082 0.0243726578 0.0242320728
2001.8687231754291 0.0239944924 0.0237121433 0.023470372 0.0233504269 0.0234008487 0.0236180574
2002.5918980771253 0.0239493586 0.0243142378 0.0246333778 0.0248637293 0.0250092559 0.0251172669
2003.3150729788217 0.025250623 0.0254651736 0.0257840361 0.0261913184 0.0266381912 0.0270615797
2004.0382478805182 0.0274063908 0.0276317205 0.0277190171 0.0276617706 0.0274615567 0.027122803
2004.7614227822144 0.0266574975 0.0260961633 0.0254904013 0.0249117296 0.0244424399 0.0241468754
2005.4845976839108 0.0240588915 0.0241674725 0.0244217943 0.0247435048 0.0250494108 0.0252830368
2006.2077725856072 0.0254236106 0.0254922286 0.0255363975 0.0256133992 0.0257664192 0.0260065887
2006.9309474873035 0.0263099018 0.0266232193 0.0268857889 0.027041832 0.0270633437 0.0269556586
2007.6541223889999 0.0267533734 0.0265059229 0.026258789 0.0260367747 0.0258336142 0.025615437
2008.3772972906963 0.0253383555 0.0249716677 0.0245156009 0.0240141731 0.0235401504 0.0231830161
2009.1004721923928 0.0230171364 0.0230733547 0.0233365819 0.0237465445 0.0242225081 0.024677705
2009.823647094089 0.0250462163 0.0252900254 0.0253959987 0.0253691245 0.025219474 0.0249600168
2010.5468219957854 0.0246057101 0.0241766497 0.0237049349 0.0232276861 0.0227807779 0.0223910194
2011.2699968974819 0.0220673867 0.02180437 0.0215887967 0.0214142315 0.021285424 0.0212242175
2011.9931717991781 0.021259848 0.0214189664 0.0217113215 0.0221243184 0.0226206724 0.0231515262
2012.7163467008745 0.0236676 0.0241271891 0.0245076772 0.0247983318 0.0249969009 0.025101468
2013.4395216025709 0.0251093321 0.02501975 0.0248392038 0.0245896857 0.0243085958 0.0240409262
2014.1626965042672 0.0238356888 0.0237315316 0.0237490293 0.023887217 0.0241243877 0.0244244244
2014.8858714059636 0.0247439947 0.0250435825 0.0252965242 0.0254901201 0.0256271753 0.0257214885
2015.60904630766 0.025787903 0.0258322433 0.0258425474 0.0257862508 0.025618881 0.0252969805
2016.3322212093565 0.0248006135 0.0241504125 0.0234189983 0.0227226429 0.0221844669 0.0219131876
2017.0553961110527 0.0219637211 0.0223232042 0.0229153391 0.0236193519 0.024308946 0.0248691309
2017.7785710127491 0.0252302196 0.0253746752 0.025333086 0.0251659267 0.0249457322 0.0247412249
2018.5017459144456 0.0245973989 0.0245353393 0.0245529748 0.0246325359 0.0247472916 0.0248696581
2019.2249208161418 0.0249782298 0.0250583254 0.0251069441 0.0251296237 0.0251425095 0.0251702815
2019.9480957178382 0.025235733 0.0253627673 0.0255645122 0.0258405413 0.0261719618 0.026525788
2020.6712706195347 0.0268603023 0.0271319393 0.0273085013 0.0273740999 0.027334366 0.027210068
2021.3944455212309 0.0270321351 0.0268274881 0.0266100783 0.0263749976 0.0261033773 0.0257732403
2022.1176204229273 0.025369864 0.0248974822 0.0243832413 0.0238731429 0.0234232284 0.0230851639
2022.8407953246237 0.0229009837 0.022893928 0.0230665412 0.0233971775 0.023846224 0.0243587438
2023.5639702263202 0.0248711314 0.025328625 0.0256939624 0.025957834 0.0261422954 0.0262948703
2024.2871451280164 0.0264705643 0.0267064366 0.0270051956 0.0273233205 0.0275860671 0.0277037602
2025.0103200297128 0.0276073571 0.0272767115 0.0267530922 0.0261298381 0.025522342 0.0250438638
2025.7334949314093 0.0247630421 0.0246956982 0.0248025414 0.0250104144 0.0252369624 0.0254104715
2026.4566698331055 0.0254918765 0.0254716743 0.0253675096 0.0252067987 0.0250235405 0.0248446427
2027.1798447348019 0.0246876664 0.0245586187 0.0244539734 0.0243628435 0.0242718738 0.0241738129
2027.9030196364984 0.0240696091 0.0239746738 0.0239134021 0.0239109527 0.0239853878 0.0241366811
2028.6261945381946 0.024344936 0.0245742928 0.0247859135 0.0249497686 0.0250556581 0.0251150541
2029.349369439891 0.0251556747 0.0252111871 0.0253066029 0.0254523847 0.0256430991 0.0258600954
2030.0725443415874 0.0260791704 0.0262741018 0.0264217574 0.0265000053 0.0264910609 0.0263858773
2030.7957192432839 0.0261866376 0.0259148888 0.0256065801 0.0253089573 0.0250648204 0.0248984657
2031.5188941449801 0.0248116292 0.024786124 0.0247916672 0.0248042606 0.0248191711 0.0248526055
2032.2420690466765 0.0249366444 0.0250987653 0.02534559 0.0256527998 0.0259681065 0.0262203533
2032.965243948373 0.0263466556 0.0263117328 0.0261169244 0.025798874 0.025414547 0.0250287354
2033.6884188500692 0.0246909969 0.024429787 0.0242488906 0.0241351053 0.0240658969 0.0240176748
2034.4115937517656 0.0239757951 0.0239341296 0.0238963887 0.0238756631 0.0238911025 0.0239651147
2035.1347686534621 0.024117101 0.0243601799 0.0246931016 0.025098905 0.0255422313 0.0259751063
2035.8579435551583 0.0263451412 0.0266020112 0.0267089382 0.0266480204 0.0264232717 0.0260614362
2036.5811184568547 0.0256083719 0.025129905 0.0246953461 0.0243731476 0.0242179185 0.0242598914
2037.3042933585511 0.024498878 0.0249023959 0.0254132468 0.0259547047 0.0264446456 0.0268168095
2038.0274682602476 0.0270206761 0.027035661 0.0268674586 0.0265498087 0.026134342 0.0256831348
2038.7506431619438 0.0252635106 0.0249313097 0.0247246679 0.0246585216 0.0247231945 0.0248861834
2039.4738180636402 0.0250998177 0.0253165085 0.0254958831 0.0256173704 0.0256830305 0.0257151965
2040.1969929653367 0.02574775 0.0258111805 0.0259232949 0.0260805413 0.0262558684 0.0264051016
2040.9201678670329 0.0264829602 0.0264565125 0.0263185259 0.0260921884 0.0258253161 0.0255776905
2041.6433427687293 0.0253986679 0.0253093075 0.0252966285 0.0253183693 0.0253167544 0.0252393149
2042.3665176704258 0.0250611696 0.0247901585 0.0244667679 0.0241450891 0.0238752794 0.0236859694
2043.089692572122 0.0235755853 0.0235176943 0.0234738681 0.0234149061 0.0233308133 0.0232381374
2043.8128674738184 0.0231726002 0.0231784377 0.0232892446 0.0235170648 0.0238470994 0.0242434237
2044.5360423755149 0.0246572588 0.0250384938 0.0253501926 0.0255708378 0.025696354 0.0257361494
2045.2592172772113 0.0257115401 0.0256466493 0.0255644061 0.025484534 0.0254184119 0.0253715143
2045.9823921789075 0.025342254 0.0253261663 0.0253172107 0.0253103618 0.0253026001 0.025293678
2046.7055670806039 0.0252846181 0.0252783671 0.0252771024 0.0252834242 0.0252977535 0.0253190715
2047.4287419823004 0.0253424291 0.025360344 0.0253629088 0.0253413059 0.0252919234 0.0252196491
2048.1519168839968 0.0251383651 0.0250685401 0.0250318591 0.0250430219 0.0251030475 0.0251970012
2048.8750917856933 0.0252959263 0.0253675096 0.0253795236 0.0253157709 0.0251770224 0.024983881
2049.5982666873897 0.0247686896 0.0245679114 0.0244150311 0.0243292358 0.0243153945 0.0243622139
2050.3214415890857 0.0244486444 0.0245498549 0.0246453714 0.0247264225 0.0247976314 0.0248750616
2051.0446164907821 0.0249793883 0.0251268502 0.02532118 0.0255467296 0.0257701818 0.0259495694
2051.7677913924786 0.0260460265 0.0260372311 0.025927268 0.0257468373 0.0255475733 0.0253829304
2052.490966294175 0.0252934676 0.0252953991 0.0253763609 0.0255012233 0.0256237313 0.025706267
2053.214141195871 0.0257275011 0.0256892871 0.025614066 0.0255355891 0.0254872739 0.0254896637
2053.9373160975674 0.0255459566 0.0256397594 0.0257425476 0.0258200057 0.0258469433 0.0258155055
2054.6604909992639 0.025738785 0.0256473869 0.025582118 0.0255799405 0.0256588813 0.0258132201
2055.3836659009603 0.0260119718 0.0262120478 0.0263690464 0.0264523234 0.02645359 0.0263847858
2056.1068408026567 0.026268892 0.0261257216 0.0259656087 0.0257857572 0.0255784281 0.025341833
2056.8300157043532 0.0250886194 0.0248460807 0.0246491227 0.0245230682 0.0244707633 0.0244672224
2057.5531906060496 0.0244682394 0.0244264212 0.0243113302 0.0241258927 0.0239087809 0.0237244964
2058.276365507746 0.0236380696 0.0236986708 0.0239215959 0.0242859609 0.0247413646 0.0252251979
2058.9995404094425 0.0256826784 0.026073223 0.0263812654 0.0266111717 0.0267823059 0.0269207936
2059.7227153111389 0.0270496607 0.0271844231 0.0273240618 0.0274513215 0.0275334977 0.027534239
2060.4458902128349 0.0274250973 0.0272020604 0.0268920269 0.0265535768 0.0262618158 0.0260785706
2061.1690651145313 0.0260373373 0.0261238571 0.026283605 0.0264349617 0.0265012383 0.0264403503
2061.8922400162278 0.0262545645 0.0259896331 0.0257132966 0.0254925098 0.0253668074 0.0253394432
2062.6154149179238 0.0253820177 0.0254537202 0.0255168248 0.025550561 0.0255547427 0.0255405102
2063.3385898196202 0.0255194958 0.0254945122 0.0254579 0.0253980719 0.0253084656 0.0251957718
2064.0617647213166 0.0250815284 0.0249944106 0.0249627884 0.0250018854 0.0251089465 0.0252628084
2064.7849396230131 0.0254311636 0.0255823992 0.0256921705 0.0257523563 0.0257694442 0.0257633608
2065.5081145247095 0.0257592127 0.0257819965 0.0258492976 0.0259653274 0.0261189304 0.0262843091
2066.231289426406 0.0264295395 0.026522899 0.0265455116 0.0264981743 0.0264021792 0.0262939204
2066.9544643281024 0.0262101814 0.0261788592 0.026207367 0.0262815282 0.0263707377 0.0264411587
2067.6776392297988 0.0264669023 0.0264378842 0.0263600685 0.0262517855 0.0261343773 0.0260241795
2068.4008141314953 0.0259292033 0.0258497912 0.0257816091 0.0257202238 0.025662994 0.0256086886
2069.1239890331917 0.0255571324 0.0255060736 0.0254526306 0.0253937859 0.0253281686 0.0252584182
2069.8471639348877 0.0251893122 0.0251261126 0.025071945 0.025026314 0.0249856357 0.0249454882
2070.5703388365841 0.0249025002 0.0248562209 0.0248071384 0.0247553959 0.0246968903 0.0246231034
2071.2935137382806 0.0245243311 0.0243930556 0.0242308117 0.0240513626 0.0238784645 0.0237430446
2072.0166886399766 0.0236741081 0.0236880686 0.0237849709 0.023945963 0.0241402537 0.0243298672
2072.739863541673 0.0244849604 0.0245888792 0.0246441439 0.0246684812 0.0246896651 0.0247348398
2073.4630384433694 0.0248201881 0.0249460135 0.0250956751 0.0252439845 0.0253642071 0.025438929
2074.1862133450659 0.0254668947 0.0254608169 0.0254423358 0.0254290216 0.0254271943 0.0254280381
2074.9093882467623 0.0254122633 0.0253573935 0.025252765 0.0251061376 0.0249451362 0.0248072427
2075.6325631484588 0.0247290879 0.0247344896 0.0248259418 0.0249863379 0.025185274 0.0253922753
2076.3557380501552 0.0255822949 0.0257388912 0.0258532017 0.025916893 0.0259194262 0.0258523226
2077.0789129518516 0.0257132277 0.025515981 0.0252910089 0.0250847936 0.0249433462 0.0248968862
2077.8020878535481 0.0249487162 0.02507177 0.0252182093 0.0253347363 0.0253861621 0.0253665615
2078.5252627552445 0.0252991226 0.025223162 0.0251755826 0.0251725633 0.0252014957 0.025224952
2079.2484376569405 0.025198441 0.0250920244 0.0249036234 0.0246637817 0.024422951 0.0242379233
2079.9716125586369 0.0241485909 0.0241652299 0.0242693163 0.0244220756 0.0245826375 0.0247200727
2080.6947874603334 0.0248235222 0.0249002203 0.0249682274 0.025042424 0.0251288861 0.0252192635
2081.4179623620298 0.0252975766 0.0253452044 0.0253491737 0.0253083594 0.0252321158 0.0251377691
2082.1411372637258 0.025042424 0.0249601565 0.0248990972 0.0248605013 0.0248426069 0.0248426776
2082.8643121654222 0.0248588156 0.0248917285 0.0249428563 0.0250141341 0.0251053292 0.0252136458
2083.5874870671187 0.0253316462 0.0254464466 0.0255419146 0.0255992692 0.0256011318 0.0255372766
2084.3106619688151 0.0254077315 0.0252251625 0.025013186 0.0248026121 0.0246240143 0.024498878
2085.0338368705115 0.0244375691 0.0244373586 0.0244878363 0.0245745387 0.0246859118 0.0248156972
2085.757011772208 0.0249601565 0.0251163188 0.0252769962 0.0254307073 0.0255639143 0.0256668255
2086.4801866739044 0.0257374141 0.0257825945 0.0258169472 0.0258535184 0.0258967746 0.0259378906
2087.2033615756009 0.0259558298 0.0259265658 0.0258328412 0.0256751552 0.0254735015 0.0252658278
2087.9265364772973 0.0250929035 0.0249857064 0.0249565765 0.0249950066 0.0250746142 0.0251614321
2088.6497113789937 0.0252304301 0.0252700783 0.0252855308 0.0252915714 0.0253055152 0.0253387056
2089.3728862806897 0.025392767 0.0254599042 0.0255275778 0.0255846847 0.0256226417 0.0256384946
2090.0960611823862 0.0256319921 0.0256046113 0.0255580097 0.0254945122 0.025419008 0.025339514
2090.8192360840826 0.0252660401 0.0252107661 0.0251825694 0.0251868535 0.0252241101 0.0252905171
2091.5424109857786 0.0253784694 0.0254782792 0.0255788863 0.0256671757 0.02572947 0.0257538687
2092.265585887475 0.0257340744 0.0256722737 0.0255798344 0.025477577 0.0253895 0.0253345612
2092.9887607891715 0.0253234282 0.0253537055 0.0254123341 0.0254790168 0.0255341493 0.0255627893
2093.7119356908679 0.025555972 0.0255108513 0.0254287403 0.0253141206 0.0251737572 0.0250194687
2094.4351105925643 0.0248683244 0.0247392245 0.0246488433 0.0246061664 0.0246072169 0.0246362872
2095.1582854942608 0.0246715676 0.0246957671 0.0247038696 0.0247077979 0.0247305967 0.0247984026
2095.8814603959572 0.0249248538 0.0251023453 0.0252988767 0.0254677385 0.0255627893 0.0255519655
2096.6046352976537 0.025429653 0.0252184551 0.0249611381 0.0247041509 0.0244881157 0.0243362803
2097.3278101993501 0.0242528841 0.0242275521 0.024243284 0.0242846981 0.0243405551 0.0244040247
2098.0509851010465 0.024471499 0.0245393012 0.0246029049 0.0246586967 0.0247064289 0.0247504152
2098.7741600027425 0.0247992445 0.0248637982 0.0249518398 0.0250646435 0.0251952447 0.025328625
2099.497334904439 0.0254458506 0.0255269799 0.0255589597 0.0255374182 0.0254691783 0.0253705662
2100.2205098061354 0.0252648797 0.0251764953 0.0251248851 0.025122216 0.0251712296 0.0252669528
2100.9436847078314 0.0253988449 0.0255538635 0.0257185008 0.0258767996 0.0260108113 0.0260992963
2101.6668596095278 0.0261194576 0.0260540135 0.025897935 0.0256665442 0.0253942423 0.0251318365
2102.3900345112243 0.0249341875 0.0248390641 0.0248604305 0.0249780547 0.0251466874 0.0253056549
2103.1132094129207 0.0254012328 0.0254048873 0.0253171753 0.0251666289 0.0249941647 0.0248408522
2103.8363843146171 0.0247310176 0.0246679559 0.0246368498 0.0246157739 0.0245851614 0.0245352685
2104.5595592163136 0.0244679954 0.0243931599 0.0243219119 0.0242619589 0.0242164116 0.0241855122
2105.28273411801 0.024169784 0.0241728667 0.0242005773 0.0242570881 0.0243418869 0.0244465768
2106.0059090197065 0.0245576035 0.0246579256 0.0247345604 0.0247835629 0.0248107519 0.0248299409
2106.7290839214029 0.0248576589 0.0249083601 0.0249887593 0.0250968691 0.0252227392 0.0253527556
2107.4522588230993 0.0254722368 0.0255681667 0.0256323423 0.0256612357 0.0256561395 0.0256224666
2108.1754337247953 0.0255707316 0.0255139787 0.0254661571 0.0254413169 0.0254487302 0.0254911389
2108.8986086264918 0.0255629309 0.0256512892 0.0257381182 0.0258042887 0.0258353725 0.0258247182
2109.6217835281882 0.0257758778 0.0257013794 0.0256187767 0.0255466234 0.0254966561 0.0254730433
2110.3449584298846 0.0254695304 0.0254742391 0.0254731849 0.0254562851 0.0254206248 0.0253714435
2111.0681333315806 0.0253191777 0.0252740122 0.0252440199 0.0252307821 0.0252309218 0.0252377354
2111.7913082332771 0.0252441615 0.0252448637 0.025235733 0.025213154 0.0251735803 0.0251126327
2112.5144831349735 0.025028877 0.0249255206 0.0248142593 0.0247127078 0.0246415827 0.024617983
2113.2376580366699 0.0246470533 0.0247186348 0.0248090681 0.024888359 0.0249286424 0.0249153785
2113.9608329383664 0.0248517636 0.02476006 0.0246733911 0.0246255584 0.024643898 0.0247398559
2114.6840078400628 0.0249079037 0.0251271669 0.0253696181 0.0256034527 0.0258000344 0.0259393677
2115.4071827417592 0.0260101426 0.026012782 0.0259563569 0.025857985 0.0257373098 0.0256115701
2116.1303576434557 0.0254932828 0.0253874622 0.0252945218 0.0252127666 0.0251426846 0.0250898134
2116.8535325451521 0.0250635557 0.0250730682 0.0251209531 0.0251987223 0.0252868645 0.0253601689
2117.5767074468486 0.0253944527 0.0253781173 0.0253156647 0.025227515 0.0251400508 0.0250778776
2118.2998823485445 0.0250517968 0.0250561498 0.0250712782 0.0250737704 0.0250484273 0.0249948315
2119.023057250241 0.0249295905 0.0248775519 0.0248632729 0.0248970967 0.0249707904 0.02505829
2119.7462321519374 0.0251269564 0.0251500215 0.0251176171 0.0250410568 0.0249503646 0.0248836931
2120.4694070536334 0.0248723943 0.0249309596 0.0250515509 0.0252075698 0.025359923 0.0254690386
2121.1925819553298 0.0255079698 0.0254662987 0.0253540911 0.0251955967 0.0250259284 0.0248796921
2121.9157568570263 0.0247839503 0.0247543436 0.0247916672 0.0248832013 0.0250049029 0.0251301862
2122.6389317587227 0.0252346434 0.0253030919 0.0253320318 0.0253313649 0.0253190026 0.0253124684
2123.3621066604192 0.0253225137 0.0253461879 0.0253662802 0.0253564455 0.0252903067 0.0251532178
2124.0852815621156 0.0249505416 0.0247103926 0.0244756006 0.0242967177 0.0242144149 0.0242492408
2124.808456463812 0.0243963487 0.0246293806 0.024907764 0.0251883287 0.0254391748 0.0256422907
2125.5316313655085 0.0257944781 0.0259013474 0.0259703211 0.026005324 0.0260045845 0.0259623714
2126.2548062672049 0.0258744787 0.0257417392 0.0255740359 0.0253900271 0.0252124518 0.0250653811
2126.9779811689014 0.024967175 0.0249261875 0.0249384679 0.0249885134 0.0250521135 0.0251005553
2127.7011560705973 0.0251096133 0.0250664353 0.0249734931 0.0248502549 0.0247282814 0.0246430561
2128.4243309722938 0.024619421 0.024664484 0.0247623753 0.0248791669 0.0249712467 0.0250010435
2129.1475058739902 0.0249511376 0.0248293094 0.024666097 0.0245029107 0.024382541 0.0243325308
2129.8706807756862 0.0243607759 0.0244571269 0.0246012565 0.0247713216 0.0249501187 0.0251283608
2130.5938556773826 0.0252992976 0.0254557226 0.0255858786 0.0256742071 0.0257051419 0.0256698839
2131.3170305790791 0.0255691856 0.025414722 0.0252225995 0.025010379 0.0247886851 0.0245618802
2132.0402054807755 0.0243305322 0.024098048 0.0238770638 0.0236924775 0.0235755518 0.0235557519
2132.763380382472 0.0236503854 0.0238565505 0.0241492223 0.0244854167 0.0248187501 0.0251084547
2133.4865552841684 0.0253283437 0.025471814 0.0255488735 0.0255802907 0.0255874954 0.0255892184
2134.2097301858648 0.0255978983 0.0256175101 0.0256484766 0.0256876349 0.0257299971 0.0257677212
2134.9329050875613 0.0257914551 0.0257892739 0.0257500708 0.0256660171 0.0255356953 0.0253675804
2135.6560799892577 0.0251783915 0.0249897409 0.0248240475 0.0246960837 0.0246084798 0.0245486628
2136.3792548909541 0.0244935844 0.024412157 0.0242750626 0.0240659323 0.0237864759 0.0234605782
2137.1024297926501 0.0231279712 0.0228395499 0.0226418246 0.0225628372 0.0226060469 0.0227462444
2137.8256046943466 0.0229400005 0.0231344011 0.0232887547 0.0233832244 0.0234266911 0.0234499481
2138.548779596043 0.0234961137 0.0236028023 0.0237862654 0.0240344126 0.0243073348 0.0245524496
2139.2719544977394 0.0247166008 0.024764901 0.024691524 0.0245213863 0.0243016928 0.0240856502
2139.9951293994354 0.0239239763 0.023850495 0.0238793045 0.0240061879 0.0242133997 0.0244754963
2140.7183043011319 0.0247589033 0.0250285957 0.0252469704 0.0253750626 0.0253829304 0.0252557844
2141.4414792028283 0.0250026584 0.0246578548 0.0242780056 0.0239307676 0.0236730929 0.023543613
2142.1646541045247 0.0235511698 0.0236758217 0.0238763299 0.024105439 0.0243271329 0.0245193169
2142.8878290062212 0.0246787928 0.0248134881 0.0249339771 0.0250448827 0.0251409281 0.0252076406
2143.6110039079176 0.0252293423 0.0251927879 0.0250936393 0.0249386448 0.0247452222 0.0245381091
2144.3341788096141 0.0243437793 0.0241879653 0.0240903068 0.0240604337 0.0240969267 0.0241879653
2145.0573537113105 0.024314519 0.0244531315 0.0245875455 0.0247113761 0.0248312745 0.0249645784
2145.7805286130069 0.0251268856 0.0253269393 0.0255550928 0.0257821009 0.0259646233 0.0260622818
2146.5037035147029 0.0260453224 0.0259080306 0.0256686527 0.0253647342 0.0250428803 0.0247426629
2147.2268784163994 0.0244940054 0.024311645 0.0242011026 0.0241613425 0.0241899267 0.0242814757
2147.9500533180958 0.0244203582 0.0245785359 0.0247165654 0.0247885454 0.0247610435 0.0246264692
2148.6732282197922 0.0244131722 0.0241813436 0.0240112301 0.0239804164 0.0241347905 0.0244759861
2149.3964031214882 0.0249570329 0.0255011544 0.026016511 0.026423201 0.0266757477 0.0267637689
2150.1195780231847 0.0267119333 0.0265629459 0.0263683088 0.0261699203 0.0259961765 0.0258635059
2150.8427529248811 0.0257773902 0.0257337578 0.0257212073 0.0257209968 0.025709888 0.025662221
2151.5659278265775 0.0255601536 0.0254005305 0.0251968615 0.0249764398 0.0247736704 0.0246168617
2152.289102728274 0.0245176703 0.0244690813 0.0244470667 0.0244246703 0.0243792459 0.0243015178
2153.0122776299704 0.0241972487 0.0240792055 0.0239584967 0.0238373335 0.0237069651 0.0235556122
2153.7354525316669 0.0233761612 0.0231744181 0.0229720343 0.0227989014 0.0226846579 0.0226440243
2154.4586274333633 0.0226699971 0.0227372367 0.0228100754 0.022856243 0.0228607841 0.0228294916
2155.1818023350597 0.0227885302 0.0227720141 0.0228070728 0.022905875 0.0230608098 0.0232466664
2155.9049772367562 0.0234295931 0.0235779993 0.0236732326 0.023709029 0.0236938428 0.0236444026
2156.6281521384522 0.0235826876 0.0235292725 0.0234987717 0.0235004853 0.0235397648 0.0236172527
2157.3513270401486 0.0237377957 0.0239092708 0.0241463501 0.0244629811 0.0248672366 0.025350051
2158.074501941845 0.0258783121 0.0263970736 0.0268331636 0.0271173026 0.0272087641 0.0271088015
2158.797676843541 0.0268695373 0.0265763681 0.0263288412 0.0262040235 0.0262394659 0.0264232717
2159.5208517452375 0.0267062262 0.0270147528 0.0272750184 0.027436709 0.0274737701 0.0273852516
2160.2440266469339 0.0271893628 0.0269171614 0.0266091637 0.0263131056 0.0260834973 0.0259734876
2160.9672015486303 0.0260226317 0.0262490045 0.0266363956 0.0271332078 0.0276563335 0.0281146504
2161.6903764503268 0.0284289196 0.0285482574 0.0284639075 0.0282049794 0.027830353 0.0274023321
2162.4135513520232 0.026977377 0.0265881326 0.0262387618 0.0259101056 0.0255727004 0.0252014957
2163.1367262537196 0.0247895624 0.0243526101 0.0239255857 0.0235555414 0.023281239 0.0231226254
2163.8599011554161 0.0230765343 0.0231225546 0.0232328232 0.0233902894 0.0235978346 0.0238799695
2164.5830760571125 0.0242713485 0.0247949641 0.0254430752 0.0261642542 0.0268739797 0.027465051
2165.306250958809 0.0278443433 0.0279644392 0.0278346278 0.0275186356 0.0271032304 0.0266782492
2166.0294258605049 0.026303811 0.0260007493 0.025761392 0.0255660228 0.0254005305 0.0252675489
2166.7526007622014 0.0251808502 0.0251526553 0.0251748804 0.0252162796 0.0252251979 0.025150409
2167.4757756638978 0.0249673165 0.02469212 0.024384819 0.0241270494 0.0240024421 0.0240631998
2168.1989505655938 0.0243138522 0.0247087795 0.0251696128 0.0256155431 0.0259782355 0.0262257028
2168.9221254672902 0.0263617598 0.0264177788 0.0264338348 0.0264451392 0.0264696833 0.0265031047
2169.6453003689867 0.0265219137 0.026492117 0.0263857357 0.0261910707 0.0259245262 0.0256296713
2170.3684752706831 0.0253729895 0.0252249166 0.0252312031 0.0254000388 0.0256851744 0.0260000117
2171.0916501723796 0.0262313709 0.0262808949 0.0261007734 0.0257076733 0.0251831673 0.024645336
2171.814825074076 0.0242204759 0.0239935126 0.0239909906 0.0241726208 0.0244575832 0.0247522742
2172.5379999757724 0.024983529 0.0251252353 0.0251964387 0.025250623 0.0253469963 0.0255303197
2173.2611748774689 0.0258133244 0.0261723138 0.0265548099 0.0268961508 0.0271389224 0.0272438657
2173.9843497791653 0.0272040367 0.0270439833 0.0268173385 0.0265872162 0.0264128484 0.0263368338
2174.7075246808618 0.026371723 0.0265007466 0.0266849436 0.0268800072 0.0270521641 0.0271874927
2175.4306995825577 0.0272943173 0.0273914989 0.0274939258 0.0275984239 0.0276764967 0.0276820771
2176.1538744842542 0.0275721904 0.027319828 0.026932884 0.0264524985 0.0259468257 0.0254888907
2176.8770493859506 0.02513461 0.0249148868 0.024830047 0.0248594824 0.0249750018 0.0251537431
2177.6002242876471 0.0253805779 0.0256452784 0.0259350073 0.0262282733 0.0264928211 0.0266948808
2178.323399189343 0.0268061999 0.0268169139 0.0267399121 0.026608916 0.0264690854 0.0263608079
2179.0465740910395 0.0263112392 0.0263245106 0.0263862647 0.0264701769 0.0265505482 0.0266124047
2179.7697489927359 0.0266545024 0.0266884677 0.0267318785 0.0267967209 0.0268818047 0.026968386
2180.4929238944324 0.0270218737 0.0270030461 0.0268785618 0.0266345982 0.0262843445 0.0258698016
2181.2160987961288 0.025453791 0.0251026973 0.0248787813 0.0248199776 0.0249322224 0.0251900479
2181.9392736978252 0.0255399477 0.0259165056 0.0262467507 0.0264676418 0.0265318099 0.0264137983
2182.6624485995217 0.0261152349 0.0256659817 0.0251242518 0.0245615989 0.0240614135 0.0237003155
2183.3856235012181 0.0235319994 0.0235790145 0.0238259919 0.0242278334 0.0247176886 0.025224952
2184.1087984029145 0.0256950166 0.0260891262 0.0263918974 0.0266032442 0.0267327949 0.0267902706
2184.831973304611 0.0267813187 0.0267075654 0.0265694279 0.0263738707 0.0261380374 0.02588946
2185.555148206307 0.0256659817 0.0255077947 0.0254455339 0.025495531 0.0256517455 0.0258862954
2186.2783231080034 0.0261519719 0.0263926722 0.0265603755 0.026622409 0.0265721753 0.0264272857
2187.0014980096998 0.0262227468 0.0259962473 0.0257766861 0.0255791321 0.0254040435 0.0252476372
2187.7246729113958 0.02511351 0.0250240676 0.0250199605 0.025153568 0.0254664384 0.0259691607
2188.4478478130923 0.026624769 0.0273547266 0.0280446988 0.0285756476 0.0288607869 0.0288583785
2189.1710227147887 0.0285916068 0.0281362496 0.0276092999 0.0271313749 0.0267944299 0.0266493242
2189.8941976164851 0.0266905464 0.0268686917 0.0271015372 0.0273033846 0.0274052974 0.0273679942
2190.6173725181816 0.027192466 0.0269142706 0.0265914444 0.026284134 0.0260405038 0.0258821454
2191.340547419878 0.0257998221 0.025756048 0.0256991312 0.0255826116 0.0253752377 0.0250727888
2192.0637223215745 0.0246953461 0.0242822468 0.0238769948 0.0235156659 0.0232238062 0.0230144113
2192.7868972232709 0.0228956398 0.0228766408 0.0229690298 0.0231840983 0.023525564 0.0239815377
2193.5100721249673 0.0245197378 0.0250907261 0.0256404616 0.0261186846 0.0264925044 0.0267566852
2194.2332470266638 0.0269308761 0.0270533636 0.0271651298 0.0273004565 0.0274751466 0.0276843365
2194.9564219283598 0.0279050414 0.0281045418 0.0282501336 0.028314814 0.0282837264 0.0281575322
2195.6795968300562 0.027951153 0.0276909769 0.0274129901 0.0271574389 0.0269568227 0.0268311184
2196.4027717317526 0.0267804377 0.0267869923 0.0268179718 0.0268382728 0.0268242806 0.0267702527
2197.1259466334486 0.0266944226 0.0266288202 0.0266124737 0.0266731419 0.0268152934 0.027016269
2197.8491215351451 0.027232999 0.0274136961 0.0275109038 0.0275007375 0.0273839459 0.0271874219
2198.5722964368415 0.0269505475 0.0267166197 0.0265198704 0.0263756663 0.0262798034 0.0262098294
2199.2954713385379 0.0261358917 0.0260258336 0.0258556288 0.0256186351 0.0253272206 0.0250138883
2200.0186462402344 0.0247246679 0.0245131478 0.0244257208 0.0244894139 0.0247053076 0.0250446368
2200.7418211419308 0.0254547037 0.0258647725 0.0262106396 0.0264441874 0.0265453346 0.0265246592
2201.4649960436273 0.0264181308 0.0262761433 0.0261462014 0.0260674525 0.0260608383 0.0261282548
2202.1881709453237 0.0262586493 0.0264316164 0.0266258959 0.0268185716 0.026990775 0.0271265078
2202.9113458470201 0.0272138789 0.0272471458 0.0272255912 0.0271540526 0.0270396471 0.0268888194
2203.6345207487166 0.0267055556 0.0264918357 0.0262467861 0.0259747896 0.0256864745 0.0254033413
2204.3576956504126 0.0251563415 0.0249754228 0.0248853415 0.0248926058 0.0249825828 0.0251209866
2205.080870552109 0.02526474 0.025376888 0.0254353099 0.0254401583 0.0254110694 0.0253786799
2205.8040454538054 0.0253694765 0.0253946632 0.025446834 0.0255028047 0.0255336221 0.0255172476
2206.5272203555019 0.0254484154 0.0253425706 0.0252319761 0.0251518134 0.0251343641 0.0251985118
2207.2503952571979 0.025344748 0.0255598724 0.0258200765 0.0260980632 0.0263647158 0.0265950374
2207.9735701588943 0.0267679989 0.026866788 0.0268833917 0.0268197693 0.0266907234 0.0265213493
2208.6967450605907 0.0263417978 0.0261808652 0.0260564052 0.025971869 0.0259170681 0.0258779246
2209.4199199622872 0.0258395225 0.0257983115 0.0257610753 0.0257443413 0.0257640649 0.0258280244
2210.1430948639836 0.0259295199 0.0260457452 0.0261458848 0.026195189 0.0261671394 0.0260506012
2210.86626976568 0.025851585 0.0255920645 0.0253081135 0.0250463914 0.0248551331 0.0247796346
2211.5894446673765 0.0248533078 0.0250872504 0.0254665446 0.0259479154 0.026471762 0.0269694086
2212.3126195690729 0.0273806285 0.0276714824 0.0278346986 0.0278893188 0.027865611 0.0277941804
2213.0357944707694 0.0276956726 0.0275805946 0.0274587329 0.0273491163 0.0272852853 0.0273158401
2213.7589693724658 0.027484782 0.0278138556 0.028285319 0.0288388673 0.0293821339 0.0298135299
2214.4821442741618 0.0300636198 0.0301081855 0.0299795065 0.0297440495 0.0294823367 0.0292526074
2215.2053191758582 0.0290730204 0.0289193243 0.0287409034 0.0284910444 0.0281468555 0.0277259406
2215.9284940775547 0.027279852 0.0268797595 0.0265866537 0.0264334474 0.0264161937 0.0265016258
2216.6516689792506 0.0266419966 0.0267939009 0.0269327089 0.0270534344 0.0271649528 0.0272779465
2217.3748438809471 0.0273947809 0.0275042672 0.0275838766 0.0276065804 0.0275506899 0.0274088271
2218.0980187826435 0.0271902438 0.0269227307 0.0266436171 0.0263985526 0.0262295399 0.0261681248
2218.82119368434 0.0262308065 0.0264114048 0.0266808923 0.0269862618 0.0272662677 0.0274592619
2219.5443685860364 0.0275170468 0.0274201203 0.0271777213 0.0268290043 0.0264264755 0.0260285418
2220.2675434877328 0.025683241 0.025418587 0.0252441261 0.0251549724 0.0251400862 0.0251870994
2220.9907183894293 0.0252867602 0.0254325699 0.0256171245 0.0258314703 0.0260648839 0.0263062045
2221.7138932911257 0.0265472718 0.0267848428 0.027020324 0.0272542723 0.027483901 0.0276973322
2222.4370681928222 0.0278749373 0.0279938057 0.0280342009 0.027990697 0.0278752912 0.0277165454
2223.1602430945186 0.0275495257 0.0274072737 0.0273080785 0.0272513088 0.0272199102 0.0271901023
2223.8834179962146 0.0271416027 0.0270658471 0.026969621 0.0268696789 0.0267868526 0.0267347321
2224.606592897911 0.0267169029 0.0267266985 0.0267537609 0.0267902706 0.0268366169 0.0269006994
2225.3297677996075 0.0269957818 0.0271325037 0.0273125935 0.0275292974 0.0277670883 0.028010875
2226.0529427013034 0.0282475874 0.0284705944 0.0286766198 0.0288601853 0.0290103871 0.029110752
2226.7761176029999 0.0291420743 0.0290923286 0.0289640222 0.0287780762 0.028569065 0.0283783711
2227.4992925046963 0.0282429196 0.0281816088 0.028193064 0.0282570291 0.028344946 0.0284277163
2228.2224674063928 0.0284884963 0.0285240896 0.0285449661 0.0285675433 0.0286066476 0.0286703538
2228.9456423080892 0.0287570804 0.0288574584 0.028958071 0.0290477257 0.0291196462 0.0291744266
2229.6688172097856 0.0292189382 0.0292640552 0.0293232147 0.0294080861 0.0295274816 0.0296861101
2230.3919921114821 0.0298835188 0.03011401 0.0303661898 0.0306265522 0.0308766831 0.0310955625
2231.1151670131785 0.0312631689 0.0313585363 0.0313672274 0.031284675 0.0311211906 0.0309020486
2231.8383419148749 0.0306643136 0.0304503068 0.0302946307 0.0302153751 0.0302091595 0.0302524976
2232.5615168165714 0.030310085 0.0303475354 0.0303476769 0.0303163398 0.0302845407 0.0302945599
2233.2846917182674 0.0303903185 0.0306006335 0.0309289116 0.0313554034 0.0318451673 0.0323627926
2234.0078666199638 0.0328808203 0.033387661 0.033882089 0.0343665704 0.0348353349 0.0352690592
2234.7310415216602 0.0356328934 0.0358886942 0.0360042714 0.0359676257 0.0357944518 0.0355297141
2235.4542164233567 0.0352405608 0.0349953733 0.0348550417 0.0348564088 0.0350069739 0.0352875665
2236.1773913250527 0.0356599763 0.0360806286 0.0365066603 0.0369078591 0.0372684859 0.0375855863
2236.9005662267491 0.0378643051 0.0381125621 0.0383376926 0.0385432765 0.0387311317 0.0389037766
2237.6237411284455 0.0390657596 0.0392264985 0.0393988341 0.0395942815 0.039819926 0.0400714502
2238.346916030142 0.0403314792 0.0405687131 0.0407437272 0.0408213586 0.0407770984 0.040610183
2239.0700909318384 0.0403448977 0.0400306098 0.0397288911 0.0394964367 0.0393744893 0.0393763036
2239.7932658335349 0.0394858047 0.0396648124 0.0398663059 0.0400471389 0.0401764736 0.0402424112
2240.5164407352313 0.0402499735 0.0402154028 0.0401579775 0.0400963761 0.040044453 0.0400092453
2241.2396156369277 0.0399924256 0.0399902798 0.0399949327 0.0399963856 0.0399843231 0.039951846
2241.9627905386242 0.0398957245 0.0398171656 0.0397200696 0.0396067351 0.0394755714 0.0393213816
2242.6859654403206 0.0391385257 0.038926173 0.0386942923 0.0384652875 0.0382674858 0.0381293856
2243.4091403420166 0.0380661562 0.0380732827 0.0381246805 0.0381799974 0.0381990634 0.038150657
2244.132315243713 0.0380242728 0.0378292017 0.0375875384 0.0373220295 0.0370456092 0.0367587581
2244.8554901454095 0.0364508033 0.036109183 0.0357289016 0.0353188701 0.0349026173 0.0345142074
2245.5786650471055 0.0341859683 0.0339426324 0.0337936506 0.0337319113 0.0337364934 0.0337783247
2246.3018399488019 0.0338306502 0.033870589 0.0338852778 0.033872094 0.0338369533 0.0337906443
2247.0250148504983 0.0337435119 0.0337007195 0.0336586498 0.033603549 0.0335155278 0.0333765335
2247.7481897521948 0.0331786014 0.0329306461 0.0326588601 0.0324010253 0.0321967602 0.0320709907
2248.4713646538912 0.0320270099 0.0320425965 0.0320771299 0.0320821591 0.032016594 0.0318608917
2249.1945395555877 0.0316182449 0.0313123465 0.0309753809 0.030639708 0.0303263944 0.0300434511
2249.9177144572841 0.0297884047 0.0295545422 0.0293370746 0.0291361213 0.0289560873 0.0288019739
2250.6408893589805 0.0286748502 0.0285698082 0.0284763258 0.0283809528 0.0282731894 0.0281465724
2251.364064260677 0.0280008391 0.0278399978 0.0276705641 0.0275002439 0.027337648 0.0271940529
2252.0872391623734 0.0270841494 0.02702385 0.0270278342 0.027102666 0.0272421371 0.0274229441
2252.8104140640694 0.0276103225 0.0277651809 0.0278519038 0.0278515145 0.0277640503 0.0276087336
2253.5335889657658 0.0274142958 0.0272133853 0.0270299856 0.0268730987 0.0267391372 0.0266144462
2254.2567638674623 0.0264854264 0.0263425354 0.0261845253 0.0260184798 0.02585686 0.0257122777
2254.9799387691583 0.0255944189 0.0255100783 0.0254613087 0.025447607 0.0254673176 0.0255167205
2255.7031136708547 0.0255901664 0.0256782137 0.0257692672 0.0258482788 0.0258993786 0.0259094723
2256.4262885725511 0.0258695893 0.0257777758 0.0256384239 0.0254626442 0.0252654068 0.0250618011
2257.1494634742476 0.0248661842 0.0246899109 0.0245400369 0.0244201832 0.0243311636 0.0242729615
2257.872638375944 0.0242459122 0.0242507812 0.0242893249 0.0243629143 0.0244710092 0.024609182
2258.5958132776404 0.0247694962 0.0249410998 0.02511172 0.0252688844 0.0254034102 0.0255095158
2259.3189881793369 0.0255853515 0.0256332215 0.0256574396 0.0256626066 0.0256517101 0.025625173
2260.0421630810333 0.0255821534 0.0255201627 0.0254395604 0.0253435895 0.0252397358 0.0251386464
2260.7653379827298 0.0250516217 0.0249880217 0.0249532424 0.0249472763 0.0249651056 0.0249981303
2261.4885128844262 0.0250377562 0.0250750352 0.0251015034 0.0251090862 0.0250881631 0.025027262
2262.2116877861222 0.0249175541 0.0247541331 0.0245410893 0.0242940187 0.0240395609 0.0238107666
2262.9348626878186 0.0236377195 0.0235423893 0.0235300418 0.0235869549 0.023684185 0.0237881914
2263.6580375895151 0.0238684528 0.0239053164 0.0238963179 0.0238539595 0.0238026809 0.023769781
2264.3812124912115 0.0237801056 0.0238483604 0.0239747446 0.024144914 0.0243336167 0.0245119203
2265.1043873929075 0.0246525947 0.0247393306 0.0247698128 0.0247551147 0.024713831 0.0246647298
2265.8275622946039 0.024620017 0.0245816559 0.0245413352 0.0244856272 0.0244047605 0.0242982935
2266.5507371963004 0.0241787173 0.0240661409 0.0239833575 0.0239439681 0.0239473283 0.0239776149
2267.2739120979968 0.0240115114 0.0240283888 0.0240179542 0.0239861235 0.0239509698 0.0239369646
2267.9970869996932 0.0239633285 0.0240360238 0.0241454393 0.0242705084 0.024387693 0.0244793519
2268.7202619013897 0.0245408434 0.0245804284 0.0246147923 0.0246596783 0.0247258265 0.0248134881
2269.4434368030861 0.0249150973 0.0250160992 0.0251007304 0.0251554288 0.0251711588 0.0251450725
2270.1666117047826 0.0250808261 0.0249880925 0.0248810966 0.0247751791 0.0246854909 0.024623068
2270.889786606479 0.0245928057 0.0245943833 0.0246229973 0.0246727597 0.0247391555 0.0248194169
2271.6129615081754 0.0249111336 0.02500901 0.0251024868 0.0251755826 0.0252104849 0.0251952801
2272.3361364098714 0.0251276232 0.0250185225 0.0248879381 0.0247602705 0.0246555414 0.0245824978
2273.0593113115679 0.0245390553 0.0245159157 0.0245039966 0.024500737 0.0245121997 0.0245497134
2273.7824862132643 0.0246221554 0.0247275438 0.0248508528 0.0249655265 0.0250464622 0.0250771753
2274.5056611149603 0.0250588879 0.0250096768 0.0249592438 0.024937978 0.0249644034 0.0250414778
2275.2288360166567 0.0251557101 0.0252859518 0.0254092775 0.0255095512 0.0255802553 0.0256203935
2275.9520109183532 0.0256305858 0.0256101657 0.0255560782 0.0254662987 0.025343027 0.0251957718
2276.6751858200496 0.0250385292 0.024886746 0.0247515719 0.0246367082 0.0245394409 0.0244549196
2277.398360721746 0.0243814532 0.024322018 0.0242831577 0.0242697019 0.0242793374 0.0243009925
2278.1215356234425 0.0243179873 0.0243139584 0.0242817905 0.0242283586 0.0241747592 0.0241470151
2278.8447105251389 0.0241664909 0.0242408663 0.0243608113 0.0245044529 0.0246442128 0.0247599557
2279.5678854268353 0.0248417296 0.0248918328 0.0249194149 0.0249336958 0.0249388199 0.0249322578
2280.2910603285318 0.0249083601 0.0248646755 0.0248054899 0.0247438196 0.0246968903 0.0246795993
2281.0142352302282 0.0247005727 0.0247586574 0.0248443261 0.0249431003 0.0250408445 0.0251263231
2281.7374101319242 0.0251916647 0.0252318345 0.0252432823 0.0252232663 0.0251712985 0.0250911471
2282.4605850336206 0.0249912869 0.024883166 0.024778828 0.0246871393 0.0246116016 0.0245516431
2283.1837599353171 0.0245048385 0.0244708695 0.0244530607 0.0244574789 0.0244893786 0.024549678
2283.9069348370131 0.0246323962 0.0247258265 0.0248156637 0.0248920098 0.0249527171 0.0250040255
2284.6301097387095 0.0250573084 0.0251228474 0.0252039544 0.0252946615 0.0253810696 0.0254470091
2285.3532846404059 0.0254810899 0.0254803877 0.0254513659 0.0254056938 0.0253553912 0.0253071655
2286.0764595421024 0.0252611581 0.0252127666 0.0251568332 0.0250929035 0.0250271913 0.0249710362
2286.7996344437988 0.0249373466 0.0249350648 0.0249647181 0.0250160303 0.0250696987 0.0251037851
2287.5228093454953 0.0250985194 0.0250429157 0.0249380823 0.0247977003 0.0246462133 0.0245114993
2288.2459842471917 0.0244219005 0.0243969448 0.0244427212 0.0245506614 0.0246993098 0.0248610619
2288.9691591488881 0.0250070095 0.0251159668 0.025177829 0.0251934193 0.0251707025 0.0251203198
2289.6923340505846 0.025051903 0.0249715615 0.024884535 0.0247971043 0.0247184951 0.0246599242
2290.415508952281 0.0246320441 0.024640426 0.0246839132 0.0247538164 0.0248378348 0.024922397
2291.138683853977 0.0249979552 0.0250607487 0.0251117889 0.0251535326 0.0251869597 0.0252095368
2291.8618587556734 0.0252160337 0.0252024438 0.0251689814 0.0251221117 0.02507356 0.0250368435
2292.5850336573699 0.0250216816 0.0250319298 0.0250638723 0.0251090508 0.0251570791 0.0252003018
2293.3082085590663 0.025236154 0.025266882 0.0252963826 0.0253275372 0.0253601335 0.0253906231
2294.0313834607623 0.0254142303 0.0254261754 0.0254237875 0.0254067127 0.0253754128 0.0253308378
2294.7545583624587 0.0252745021 0.0252085179 0.0251364 0.0250639766 0.0249990784 0.0249484349
2295.4777332641552 0.0249178 0.024908958 0.0249195546 0.0249442235 0.0249768607 0.0250133276
2296.2009081658516 0.0250512697 0.025089778 0.0251276232 0.0251615737 0.0251856949 0.0251935609
2296.9240830675481 0.0251796208 0.0251425784 0.0250861272 0.0250185579 0.0249500144 0.0248902552
2297.6472579692445 0.0248453785 0.0248169955 0.0248026121 0.024796227 0.0247918423 0.0247842297
2298.3704328709409 0.0247709341 0.0247525889 0.024733087 0.0247172676 0.0247096214 0.0247123577
2299.0936077726374 0.0247243177 0.024740627 0.0247537121 0.02475564 0.0247411188 0.0247099362
2299.8167826743338 0.0246686917 0.0246283971 0.0246022027 0.0245991871 0.0246216655 0.0246631503
2300.5399575760302 0.0247113761 0.0247511156 0.0247699525 0.0247620605 0.0247279648 0.0246729702
2301.2631324777262 0.0246050432 0.0245334804 0.0244688001 0.0244209189 0.0244005546 0.0244154166
2301.9863073794227 0.0244682394 0.0245540608 0.0246592239 0.0247637443 0.0248446763 0.0248871669
2302.7094822811191 0.0248889569 0.0248632375 0.0248308182 0.0248127859 0.0248229243 0.0248635188
2303.4326571828151 0.0249269232 0.0250002351 0.0250718407 0.0251354873 0.0251923315 0.0252479538
2304.1558320845115 0.0253064986 0.0253661051 0.0254157409 0.0254372768 0.0254135281 0.0253368095
2304.879006986208 0.0252137855 0.0250627846 0.0249057636 0.0247615334 0.0246395152 0.0245413352
2305.6021818879044 0.024463648 0.024402868 0.0243578684 0.0243321098 0.0243320744 0.0243654717
2306.3253567896008 0.0244377442 0.0245492924 0.0246925056 0.0248523615 0.0250086598 0.025139384
2307.0485316912973 0.0252269544 0.0252626333 0.0252473559 0.025189979 0.0251052957 0.02501259
2307.7717065929937 0.024931239 0.0248800088 0.0248753075 0.0249272045 0.0250393711 0.0252083782
2308.4948814946902 0.0254236106 0.025666438 0.0259088743 0.0261182617 0.0262590703 0.0263040233
2309.2180563963866 0.0262443218 0.0260917656 0.0258745477 0.0256269295 0.0253843348 0.0251738615
2309.941231298083 0.0250125192 0.0249071326 0.0248539746 0.024842361 0.0248579048 0.0248893779
2310.664406199779 0.0249296967 0.0249758083 0.0250259973 0.0250752103 0.0251137204 0.0251323972
2311.3875811014755 0.0251257978 0.0250971504 0.0250553768 0.0250130817 0.024981318 0.0249672811
2312.1107560031719 0.0249737725 0.0249999892 0.0250438284 0.0251030475 0.0251773372 0.0252648108
2312.8339309048679 0.0253586583 0.0254426878 0.025493389 0.0254874155 0.0254161283 0.0252896044
2313.5571058065643 0.025131695 0.0249689296 0.0248253103 0.0247175489 0.0246544182 0.024639409
2314.2802807082608 0.0246714279 0.0247480292 0.024865903 0.0250204522 0.0252017416 0.0253898501
2315.0034556099572 0.0255541094 0.0256624669 0.025694279 0.0256538894 0.0255666561 0.0254661571
2315.7266305116536 0.0253785048 0.0253162626 0.0252781548 0.0252528004 0.0252258647 0.0251873806
2316.4498054133501 0.0251384713 0.0250937454 0.0250801947 0.0251268502 0.0252546258 0.0254591312
2317.1729803150465 0.025706619 0.0259426385 0.0261199865 0.0262169391 0.0262360517 0.0261952598
2317.896155216743 0.0261173118 0.0260265712 0.0259464029 0.0259014182 0.0259190034 0.0260252357
2318.6193301184394 0.026241295 0.026570309 0.0269846413 0.027410768 0.0277436338 0.0278961379
2319.3425050201358 0.0278407391 0.0276186559 0.0273017976 0.0269595031 0.0266388617 0.0263642948
2320.0656799218318 0.0261502843 0.026006097 0.0259428509 0.0259781666 0.0261324067 0.026420841
2320.7888548235283 0.0268323161 0.0273121707 0.0277569145 0.0280529689 0.0281429663 0.0280463956
2321.5120297252247 0.0278316606 0.0275690481 0.0273113232 0.0270883814 0.0269120857 0.0267878734
2322.2352046269207 0.0267203562 0.0267175362 0.0267928075 0.026959043 0.0272149369 0.027524814
2322.9583795286171 0.0278150216 0.0280020759 0.028035298 0.0279230252 0.0277121309 0.0274597909
2323.6815544303136 0.0272114798 0.0270009302 0.0268529709 0.0267843492 0.0268092677 0.0269375741
2324.40472933201 0.0271708779 0.0274929013 0.0278571323 0.0281885024 0.0283976495 0.0284259841
2325.1279042337064 0.0282755941 0.0279979762 0.0276585929 0.0273092072 0.0269836187 0.0266969241
2325.8510791354029 0.0264544711 0.0262593534 0.0261151642 0.0260307584 0.0260205902 0.0260998234
2326.5742540370993 0.026273502 0.0265198704 0.0267879087 0.0270089339 0.0271305982 0.027138181
2327.2974289387957 0.0270464867 0.0268853642 0.0266836397 0.0264666192 0.0262536146 0.0260592904
2328.0206038404922 0.0259011015 0.0257966928 0.0257666316 0.0258288328 0.0259862561 0.0262135603
2328.7437787421886 0.0264533795 0.0266450606 0.0267511178 0.0267687384 0.0267181359 0.026626179
2329.4669536438846 0.0265183914 0.0264149606 0.0263350382 0.0262982138 0.0263243709 0.0264334828
2330.190128545581 0.026634844 0.0269127544 0.0272095744 0.0274407323 0.0275396053 0.0274905358
2330.9133034472775 0.0273268856 0.0270989984 0.0268544517 0.0266270582 0.02644285 0.0263238065
2331.6364783489739 0.0262879711 0.0263515841 0.0265215598 0.0267869588 0.0271031596 0.0273931213
2332.3596532506699 0.0275815465 0.0276306253 0.0275569037 0.0274037439 0.0272146557 0.0270180665
2333.0828281523663 0.0268299561 0.0266622547 0.0265281126 0.0264451746 0.0264386944 0.0265342053
2333.8060030540628 0.0267423093 0.0270328764 0.0273278374 0.0275261905 0.0275608934 0.0274335667
2334.5291779557592 0.0271924306 0.0268979501 0.0265966933 0.0263213068 0.0260917302 0.0259196367
2335.2523528574557 0.025817018 0.0257970802 0.025873635 0.0260510575 0.0263077188 0.0265860893
2335.9755277591521 0.0268066227 0.0269125439 0.0268922038 0.0267699715 0.0265834127 0.0263712294
2336.6987026608485 0.0261702724 0.0260131322 0.0259346552 0.0259716939 0.026154859 0.0264930688
2337.421877562545 0.0269427206 0.0274000391 0.0277253035 0.0278267507 0.0277064443 0.0274317674
2338.1450524642414 0.0270827748 0.0267215539 0.0263938345 0.0261302255 0.0259546693 0.0258911476
2338.8682273659379 0.0259576235 0.0261574984 0.0264560562 0.0267749056 0.0270106271 0.0270947311
2339.5914022676338 0.02703337 0.0268841665 0.0267123561 0.026561819 0.0264581684 0.0264123194
2340.3145771693303 0.0264277086 0.0265037753 0.0266361125 0.0268146247 0.0270149987 0.0271992739
2341.0377520710267 0.0273264963 0.0273698997 0.0273288246 0.0272206161 0.027067611 0.0268892068
2341.7609269727227 0.0267013982 0.026522018 0.026369717 0.0262694545 0.0262490399 0.0263288766
2342.4841018744191 0.0265058167 0.0267358944 0.026946282 0.0270667635 0.0270696562 0.0269734282
2343.2072767761156 0.0268205106 0.0266561583 0.026516594 0.0264331661 0.0264295749 0.0265237801
2343.930451677812 0.0267228223 0.0270122141 0.0273438934 0.0276369825 0.0278160814 0.027847169
2344.6536265795085 0.0277504157 0.0275739916 0.0273695122 0.0271777567 0.0270255413 0.0269322507
2345.3768014812049 0.0269081369 0.0269514993 0.0270414446 0.0271336325 0.027172925 0.0271138456
2346.0999763829013 0.0269513223 0.0267190523 0.0264689438 0.0262462236 0.0260808934 0.0259904433
2346.8231512845978 0.0259803813 0.0260461327 0.0261714328 0.0263279621 0.0264743678 0.0265658349
2347.5463261862942 0.0265715774 0.0264856368 0.0263300035 0.026139902 0.025952559 0.0257940553
2348.2695010879906 0.0256754719 0.0255963523 0.025547538 0.0255166143 0.0254930016 0.0254723057
2348.9926759896866 0.0254584979 0.0254615545 0.0254936349 0.0255625434 0.025666438 0.0257912427
2349.7158508913831 0.0259118285 0.0259992015 0.026033679 0.0260115154 0.025946578 0.0258610435
2350.4390257930795 0.0257787257 0.0257184654 0.0256922748 0.0257083047 0.0257713422 0.025880456
2351.1622006947755 0.0260241441 0.0261767469 0.0263022985 0.026365703 0.0263506696 0.0262649842
2351.8853755964719 0.0261334274 0.0259859059 0.0258518662 0.025758544 0.0257277824 0.0257761944
2352.6085504981684 0.025907537 0.0261058751 0.0263280664 0.0265139528 0.0266152564 0.0266118404
2353.3317253998648 0.0265148692 0.0263516549 0.0261550695 0.0259588901 0.0257971864 0.0257109422
2354.0549003015612 0.0257403329 0.0259079598 0.0261906832 0.0265068039 0.0267508719 0.0268541705
2354.7780752032577 0.0268222373 0.0267109834 0.0265940856 0.0265347324 0.0265858788 0.0267805792
2355.5012501049541 0.0271223094 0.0275617409 0.027989883 0.0282820649 0.0283635855 0.0282573123
2356.2244250066506 0.0280455817 0.0278176721 0.0276340153 0.027524814 0.0275046565 0.0275743455
2356.947599908347 0.0277238209 0.0279199872 0.0281070508 0.0282180626 0.0282091871 0.0280862302
2357.6707748100434 0.027892746 0.0276826415 0.0274975263 0.0273699705 0.0273217335 0.0273646414
2358.3939497117394 0.0274917725 0.0276661497 0.0278244186 0.0278990343 0.0278639868 0.0277434941
2359.1171246134359 0.0275874436 0.0274408385 0.027332671 0.0272840858 0.0273095239 0.027418144
2359.8402995151323 0.0276061557 0.0278432481 0.028069688 0.0282178856 0.0282526445 0.0281814672
2360.5634744168287 0.0280409884 0.0278754327 0.027730884 0.0276534725 0.0276820771 0.0278383382
2361.2866493185247 0.0280982833 0.0283819083 0.028576497 0.0286089126 0.0284826234 0.0282557551
2362.0098242202212 0.0280010868 0.0277823471 0.027652096 0.0276432317 0.0277598109 0.0279567
2362.7329991219176 0.0281445589 0.0282232594 0.0281426497 0.0279239081 0.0276299901 0.0273294598
2363.456174023614 0.0270750169 0.0269098636 0.0268647093 0.0269498415 0.0271391328 0.0273607597
2364.1793489253105 0.0275269672 0.0275751222 0.0274994317 0.0273346119 0.0271301046 0.0269331671
2364.9025238270069 0.0267866757 0.0267302915 0.0267882627 0.0269535091 0.0271739122 0.0273774527
2365.6256987287034 0.0275059622 0.0275418647 0.0275009852 0.0274152849 0.0273206737 0.0272471812
2366.3488736303998 0.0272176526 0.0272370558 0.0272893775 0.0273430813 0.0273749474 0.0273844395
2367.0720485320962 0.0273947809 0.0274387561 0.0275455005 0.0277290829 0.0279731322 0.0282197949
2367.7952234337927 0.0283763893 0.0283626672 0.0281588044 0.0278156921 0.027416449 0.0270418674
2368.5183983354887 0.0267507657 0.0265731271 0.0265153963 0.0265545286 0.0266446732 0.026731737
2369.2415732371851 0.0267852303 0.0268098656 0.0268351007 0.0268929433 0.027001176 0.0271548294
2369.9647481388815 0.0273222625 0.0274517797 0.0274883825 0.0274093207 0.027236633 0.0270270929
2370.6879230405775 0.0268376395 0.0267091505 0.0266594701 0.0266827941 0.0267518926 0.0268232934
2371.411097942274 0.0268546976 0.0268201921 0.0267253239 0.0265988763 0.0264804251 0.0264036935
2372.1342728439704 0.0263897143 0.0264432728 0.0265456513 0.0266571455 0.0267263819 0.0267159157
2372.8574477456668 0.0266163144 0.0264444705 0.0262311231 0.0260105655 0.0258146971 0.0256659817
2373.5806226473633 0.0255747382 0.025536539 0.0255373828 0.0255631767 0.0256085824 0.0256769136
2374.3037975490597 0.0257742256 0.0258995891 0.0260375123 0.0261560194 0.0262183119 0.0262010321
2375.0269724507561 0.0261035878 0.0259480216 0.0257662795 0.0255926624 0.0254521035 0.0253584459
2375.7501473524526 0.02531261 0.0253050588 0.0253232867 0.0253592543 0.025411807 0.0254846383
2376.473322254149 0.0255796593 0.0256926622 0.0258119181 0.0259218179 0.0260117967 0.0260804705
2377.1964971558455 0.0261362772 0.0261898041 0.0262475964 0.0263061356 0.0263534151 0.0263730958
2377.9196720575414 0.0263562314 0.0263067335 0.0262429845 0.0261884667 0.0261642188 0.0261807591
2378.6428469592379 0.026233729 0.0263062045 0.0263747163 0.0264201369 0.0264317933 0.0264099259
2379.3660218609343 0.0263604205 0.0262908563 0.0262063816 0.0261095706 0.0260038096 0.0258950163
2380.0891967626303 0.0257930718 0.0257095359 0.025652729 0.0256252773 0.0256212018 0.0256288629
2380.8123716643267 0.0256337132 0.0256242231 0.0255958252 0.0255510528 0.0254971832 0.0254408251
2381.5355465660232 0.0253867954 0.0253359657 0.0252875686 0.0252419133 0.0252022687 0.025174072
2382.2587214677196 0.0251629781 0.0251712296 0.0251952112 0.0252248812 0.0252468288 0.0252486914
2382.9818963694161 0.0252225287 0.0251676124 0.0250891112 0.0249965508 0.0249001142 0.0248089973
2383.7050712711125 0.0247311927 0.0246718489 0.0246350951 0.0246221554 0.0246313438 0.0246574692
2384.4282461728089 0.0246920846 0.0247261059 0.0247523785 0.0247692168 0.024780862 0.0247966126
2385.1514210745054 0.0248268191 0.0248773079 0.0249471366 0.025027683 0.0251054708 0.0251659267
2385.8745959762018 0.0251992829 0.0252023041 0.0251786727 0.0251348205 0.0250785444 0.0250155386
2386.5977708778983 0.0249493122 0.0248823594 0.0248182584 0.0247613937 0.0247175489 0.024691103
2387.3209457795942 0.0246833526 0.0246911384 0.0247074813 0.0247243177 0.0247340687 0.0247321036
2388.0441206812907 0.0247177929 0.024693137 0.0246617477 0.0246280823 0.0245978199 0.024577342
2388.7672955829871 0.0245748535 0.0245984159 0.0246536825 0.0247409791 0.0248527117 0.0249746852
2389.4904704846836 0.0250873566 0.0251715444 0.0252147689 0.0252140313 0.0251762494 0.0251149833
2390.2136453863795 0.0250468478 0.0249848291 0.0249359068 0.0249000099 0.0248725358 0.0248470977
2390.936820288076 0.0248193108 0.0247885454 0.0247574653 0.0247311573 0.0247138645 0.0247078333
2391.6599951897724 0.0247119367 0.0247223526 0.0247337185 0.0247412249 0.0247416459 0.0247345939
2392.3831700914689 0.0247215461 0.0247053076 0.0246883668 0.0246715676 0.0246532969 0.0246297661
2393.1063449931653 0.024596978 0.0245523434 0.0244960748 0.024432661 0.0243687313 0.0243121702
2393.8295198948617 0.0242687203 0.0242406912 0.0242267828 0.0242237691 0.0242281482 0.02423908
2394.5526947965582 0.02425793 0.0242877472 0.0243302882 0.0243835915 0.0244397763 0.0244878363
2395.2758696982546 0.024516372 0.0245175641 0.0244910251 0.024444228 0.0243909527 0.0243464075
2395.999044599951 0.0243225079 0.0243256968 0.0243554842 0.0244060233 0.0244686957 0.0245362502
2396.7222195016475 0.0246036053 0.0246684812 0.0247296486 0.024786545 0.0248376597 0.024881307
2397.4453944033435 0.0249153432 0.0249382574 0.0249492079 0.024947593 0.0249330997 0.0249057282
2398.1685693050399 0.0248666406 0.0248181894 0.0247645508 0.0247106384 0.0246604513 0.0246160887
2398.8917442067363 0.0245762914 0.0245380737 0.0244978964 0.0244547091 0.0244116299 0.0243749004
2399.6149191084323 0.0243519451 0.0243467931 0.0243573412 0.0243733227 0.0243803672 0.0243636146
2400.3380940101288 0.0243145544 0.0242357515 0.0241410956 0.0240525883 0.0239921808 0.0239765998
2401.0612689118252 0.0240097605 0.0240831636 0.0241772458 0.0242697019 0.0243419576 0.0243830662
2401.7844438135216 0.0243925638 0.0243783705 0.0243535228 0.0243299715 0.0243169013 0.0243183728
2402.5076187152181 0.0243345276 0.0243623536 0.0243981723 0.0244386904 0.0244802982 0.0245187562
2403.2307936169145 0.0245493632 0.0245659817 0.024562126 0.024533622 0.024479527 0.0244042352
2403.953968518611 0.0243176725 0.0242348406 0.0241717454 0.0241423566 0.0241551418 0.0242098961
2404.6771434203074 0.0242968574 0.0243985932 0.0244953725 0.0245678406 0.0246033259 0.0245991871
2405.4003183220038 0.0245619509 0.0245060995 0.0244478043 0.0244015008 0.0243748296 0.0243674349
2406.1234932237003 0.0243708342 0.0243729018 0.024362633 0.0243331604 0.0242853295 0.0242278334
2406.8466681253963 0.0241748635 0.0241419356 0.0241408143 0.024176931 0.0242462624 0.0243366305
2407.5698430270927 0.0244296826 0.0245072227 0.0245535001 0.024560513 0.0245292392 0.0244693607
2408.2930179287891 0.0243956838 0.0243238043 0.024267951 0.0242361724 0.0242308117 0.0242484342
2409.0161928304851 0.0242826305 0.0243260469 0.0243718512 0.0244143996 0.024449626 0.0244734976
2409.7393677321816 0.0244825073 0.0244736727 0.0244453158 0.0243991539 0.0243404154 0.0242781807
2410.462542633878 0.0242232438 0.0241867732 0.0241769645 0.0241962671 0.0242415667 0.0243040062
2411.1857175355744 0.0243720263 0.0244330466 0.0244768988 0.0244983528 0.0244971961 0.02447851
2411.9088924372709 0.0244506076 0.0244234428 0.0244050063 0.0244010109 0.0244120155 0.0244344138
2412.6320673389673 0.0244611595 0.0244834181 0.0244936198 0.0244872756 0.0244646985 0.024430383
2413.3552422406638 0.0243923534 0.0243594795 0.024337437 0.024327904 0.0243274141 0.024329586
2414.0784171423602 0.0243272744 0.0243161302 0.0242975242 0.0242783558 0.0242686868 0.0242786016
2414.8015920440566 0.024313923 0.0243733935 0.0244484339 0.0245246459 0.0245875455 0.0246247165
2415.5247669457531 0.0246306416 0.0246070065 0.0245614592 0.0245045926 0.0244464371 0.024395017
2416.2479418474491 0.024354469 0.024326643 0.0243115742 0.0243092626 0.024320161 0.0243446212
2416.9711167491455 0.0243824702 0.0244324151 0.0244906396 0.024552729 0.024613319 0.0246670786
2417.6942916508419 0.0247102883 0.0247405935 0.0247572903 0.0247613229 0.0247549396 0.024741048
2418.4174665525384 0.0247227401 0.0247021504 0.0246805456 0.0246581715 0.0246350262 0.0246125832
2419.1406414542344 0.0245941039 0.0245856885 0.0245939624 0.0246244352 0.0246787574 0.0247523785
2419.8638163559308 0.0248352736 0.0249139052 0.024976125 0.0250148363 0.0250309128 0.0250314735
2420.5869912576272 0.0250275768 0.0250281394 0.0250346679 0.0250400379 0.0250299647 0.0249892157
2421.3101661593237 0.0249066763 0.0247812141 0.0246238392 0.0244552344 0.0243006069 0.0241828151
2422.0333410610201 0.0241186786 0.0241154563 0.0241712555 0.0242766757 0.0244189203 0.0245826729
2422.7565159627165 0.0247512553 0.0249088872 0.0250405651 0.02513461 0.0251849927 0.0251926817
2423.479690864413 0.0251659621 0.0251175817 0.0250619762 0.0250107646 0.0249692462 0.0249367133
2424.2028657661094 0.0249073431 0.0248742905 0.0248329937 0.0247832127 0.0247290879 0.024677705
2424.9260406678059 0.0246359725 0.0246084109 0.0245961379 0.024596734 0.0246055704 0.0246171765
2425.6492155695023 0.0246268548 0.0246310271 0.0246280115 0.0246178433 0.0246025883 0.0245870203
2426.3723904711983 0.0245754141 0.0245720837 0.0245784651 0.0245919302 0.0246052891 0.024609603
2427.0955653728947 0.0245969445 0.0245640539 0.02451469 0.0244590901 0.0244113859 0.0243836269
2427.8187402745912 0.0243818741 0.0244025178 0.0244344138 0.0244621057 0.0244717449 0.024457233
2428.5419151762871 0.0244215149 0.0243761968 0.0243358593 0.0243136417 0.0243160594 0.0243409406
2429.2650900779836 0.0243800171 0.0244220402 0.0244597923 0.0244906396 0.0245183352 0.0245502405
2429.98826497968 0.0245929807 0.0246484224 0.0247116908 0.0247706901 0.0248111729 0.0248204339
2430.7114398813765 0.024791738 0.0247271582 0.0246386379 0.0245450865 0.0244661719 0.0244193058
2431.4346147830729 0.0244144704 0.0244514495 0.0245202295 0.0246040616 0.0246836673 0.0247413646
2432.1577896847693 0.0247657076 0.0247537121 0.0247107092 0.0246482808 0.0245810244 0.024524156
2432.8809645864658 0.0244881511 0.0244787559 0.0244953725 0.0245324634 0.0245816559 0.0246329568
2433.6041394881622 0.0246784426 0.0247123931 0.0247334726 0.0247429777 0.0247449074 0.0247436445
2434.3273143898587 0.0247418564 0.0247401018 0.0247369446 0.0247294735 0.0247159339 0.0246967487
2435.0504892915551 0.0246752854 0.02465754 0.0246492978 0.0246545244 0.0246724449 0.0246976614
2435.7736641932511 0.0247215815 0.0247350857 0.0247315429 0.0247094464 0.0246719532 0.024625171
2436.4968390949475 0.0245755892 0.0245271698 0.0244801585 0.0244323816 0.0243815947 0.024328256
2437.220013996644 0.0242773052 0.0242380276 0.0242203362 0.0242323186 0.0242761839 0.0243471786
2437.9431888983399 0.0244342033 0.0245239101 0.0246033259 0.024663046 0.0246987138 0.0247103572
2438.6663638000364 0.0247001164 0.0246710777 0.0246256981 0.0245671049 0.0244991947 0.0244288053
2439.3895387017328 0.024365332 0.0243178122 0.0242944397 0.0242980141 0.0243255924 0.0243684873
2440.1127136034293 0.0244141184 0.0244510639 0.0244696066 0.0244657155 0.0244403016 0.0243979972
2440.8358885051257 0.0243448652 0.0242866613 0.0242280792 0.0241722353 0.0241217948 0.0240793098
2441.5590634068221 0.0240471605 0.0240272693 0.024019951 0.024023803 0.0240351837 0.0240499973
2442.2822383085186 0.02406439 0.0240767188 0.0240871906 0.0240975916 0.0241095703 0.0241233371
2443.005413210215 0.024136927 0.0241463836 0.0241487306 0.0241425317 0.0241308678 0.0241194479
2443.7285881119114 0.0241154898 0.0241242126 0.0241456144 0.0241739526 0.0241981596 0.0242074784
2444.4517630136079 0.0241942704 0.0241589248 0.0241102017 0.0240631998 0.0240340978 0.0240335371
2445.1749379153039 0.0240640398 0.0241185036 0.0241836216 0.0242446847 0.0242916364 0.0243219472
2445.8981128170003 0.0243401695 0.0243541524 0.0243709404 0.0243930891 0.0244168881 0.0244352557
2446.6212877186967 0.0244400576 0.0244273338 0.0243977513 0.0243556947 0.0243058987 0.0242510624
2447.3444626203932 0.0241898578 0.0241195187 0.0240389314 0.0239530709 0.0238743331 0.0238214079
2448.0676375220896 0.0238122363 0.0238575302 0.0239548553 0.02408747 0.0242276229 0.0243432187
2448.7908124237856 0.0244098436 0.024416538 0.0243685916 0.0242846645 0.0241909083 0.0241118129
2449.513987325482 0.0240629893 0.0240489114 0.0240642503 0.0240981188 0.0241387133 0.0241775252
2450.2371622271785 0.024211403 0.0242405869 0.0242668632 0.0242905505 0.0243096482 0.0243197754
2450.9603371288749 0.024316797 0.0242987145 0.0242682658 0.0242331941 0.0242060777 0.024200296
2451.6835120305714 0.0242279042 0.0242952816 0.0244016424 0.0245377589 0.0246885084 0.0248371698
2452.4066869322678 0.0249674916 0.0250689611 0.0251379441 0.0251765661 0.0251902603 0.0251844656
2453.1298618339642 0.0251618549 0.0251221117 0.0250623282 0.0249811783 0.0248809215 0.0247694608
2453.8530367356602 0.0246595386 0.0245646499 0.0244963896 0.0244591609 0.0244506784 0.0244618244
2454.5762116373567 0.0244809296 0.0244991593 0.0245121662 0.0245229285 0.0245383549 0.0245675258
2455.2993865390531 0.0246158447 0.0246824045 0.0247587971 0.0248306785 0.0248820446 0.0248986054
2456.0225614407495 0.0248732362 0.0248071738 0.0247115865 0.0246037822 0.0245030504 0.024427088
2456.745736342446 0.0243862197 0.0243813489 0.0244044811 0.0244412143 0.0244748648 0.0244913772
2457.4689112441424 0.0244841892 0.0244544279 0.0244111754 0.0243668389 0.0243349131 0.0243239105
2458.1920861458389 0.0243365262 0.0243684165 0.0244108941 0.0244530961 0.0244841203 0.0244963542
2458.9152610475348 0.0244864691 0.0244551655 0.0244062673 0.0243463032 0.0242829118 0.024224434
2459.6384359492313 0.0241787173 0.0241521634 0.024148941 0.024170205 0.0242135748 0.0242731366
2460.3616108509277 0.0243400298 0.0244030785 0.024452256 0.024479283 0.024480544 0.024458494
2461.0847857526242 0.0244215149 0.0243824702 0.024355555 0.0243536979 0.0243839771 0.0244465768
2461.8079606543206 0.0245339014 0.0246339031 0.0247322451 0.0248161536 0.0248767454 0.024909623
2462.531135556017 0.0249140095 0.0248913076 0.0248432383 0.0247714613 0.0246782321 0.024567876
2463.254310457713 0.0244473834 0.0243259072 0.024214169 0.0241214801 0.0240538139 0.0240131561
2463.9774853594095 0.0239973292 0.0240017418 0.0240203701 0.0240473356 0.0240775235 0.024105683
2464.7006602611059 0.0241275746 0.0241393782 0.0241390988 0.0241272245 0.0241072588 0.0240848437
2465.4238351628023 0.0240653008 0.0240531489 0.0240494013 0.0240532197 0.0240629539 0.0240786802
2466.1470100644988 0.0241036527 0.0241439678 0.0242060069 0.0242921263 0.0243980661 0.0245125853
2466.8701849661952 0.0246193856 0.0247006081 0.0247443803 0.0247465204 0.0247127432 0.0246550497
2467.5933598678916 0.0245876163 0.0245228224 0.0244668722 0.024421094 0.0243829601 0.0243494567
2468.3165347695876 0.0243193544 0.0242933538 0.0242736619 0.0242622737 0.0242588054 0.0242612232
2469.0397096712841 0.0242656376 0.0242687203 0.024267951 0.0242628343 0.0242542513 0.0242440552
2469.7628845729805 0.0242351554 0.0242309514 0.0242360663 0.0242565628 0.0242974889 0.0243618283
2470.4860594746769 0.0244479086 0.0245478563 0.0246480703 0.024731053 0.0247810036 0.0247861594
2471.2092343763734 0.024743259 0.024657961 0.0245439634 0.024418395 0.024298504 0.0241988953
2471.9324092780698 0.0241285898 0.0240906924 0.0240822863 0.0240953155 0.0241181869 0.0241368227
2472.6555841797663 0.0241388883 0.0241151061 0.0240621846 0.0239848979 0.0238949526 0.0238097161
2473.3787590814622 0.0237461589 0.0237192474 0.0237370953 0.0237993915 0.0238987338 0.0240226462
2474.1019339831587 0.0241571032 0.0242886227 0.0244070739 0.0245064162 0.0245835483 0.0246379357
2474.8251088848551 0.0246715322 0.0246861577 0.0246848594 0.0246694628 0.0246418994 0.0246025547
2475.5482837865516 0.0245515015 0.0244891681 0.0244160816 0.0243352987 0.0242519733 0.024172727
2476.271458688248 0.0241055079 0.0240571406 0.0240314715 0.0240286347 0.0240446739 0.0240722355
2476.9946335899444 0.0241022501 0.0241269786 0.0241417959 0.0241463836 0.0241442472 0.0241414811
2477.7178084916404 0.0241438616 0.0241544768 0.0241726562 0.0241945162 0.0242151506 0.0242314767
2478.4409833933369 0.0242436696 0.024255231 0.024270473 0.0242908299 0.0243124869 0.0243248902
2479.1641582950333 0.024314519 0.0242709629 0.0241916087 0.0240863152 0.0239760038 0.0238879174
2479.8873331967297 0.0238453839 0.0238600858 0.0239283517 0.0240325928 0.0241483469 0.0242528133
2480.6105080984262 0.0243338626 0.0243912321 0.0244345535 0.0244757067 0.0245223325 0.0245736614
2481.3336830001226 0.0246222969 0.0246582069 0.0246762671 0.0246796347 0.0246796701 0.0246906467
2482.0568579018191 0.0247227736 0.0247784425 0.0248498339 0.0249241516 0.0249878466 0.0250342116
2482.780032803515 0.025064012 0.0250829328 0.0250965189 0.0251045935 0.025099257 0.0250679795
2483.5032077052115 0.0249991119 0.0248890612 0.0247456431 0.024588773 0.0244445782 0.024335999
2484.2263826069079 0.0242795832 0.0242795832 0.0243299026 0.0244169924 0.0245256983 0.0246409513
2484.9495575086044 0.0247495379 0.0248399749 0.0249008518 0.0249221865 0.0248970967 0.024824854
2485.6727324103008 0.0247124974 0.0245735217 0.0244257562 0.0242871158 0.0241706949 0.024084039
2486.3959073119972 0.0240282137 0.0240007602 0.0239972584 0.0240133666 0.0240447093 0.0240859296
2487.1190822136937 0.0241304468 0.024171466 0.0242033098 0.0242244005 0.0242382046 0.0242525339
2487.8422571153897 0.0242760796 0.0243156403 0.0243710801 0.0244356412 0.0244968794 0.0245405287
2488.5654320170861 0.0245560259 0.0245376527 0.0244871341 0.024410123 0.0243160259 0.0242140293
2489.2886069187825 0.0241124779 0.0240190756 0.0239414815 0.0238863416 0.0238595959 0.0238643922
2490.011781820479 0.0238994695 0.0239595827 0.0240370743 0.0241237916 0.0242132936 0.0243022535
2490.7349567221754 0.0243892353 0.0244723056 0.024546979 0.0246051848 0.0246362537 0.0246315543
2491.4581316238719 0.0245869849 0.0245068707 0.0244034994 0.0242952462 0.0242016278 0.0241362955
2492.1813065255678 0.0241066981 0.0241115317 0.0241428819 0.0241905227 0.0242459476 0.0243048128
2492.9044814272643 0.0243671201 0.0244353246 0.0245118495 0.0245964881 0.0246843696 0.0247669704
2493.6276563289607 0.0248340815 0.0248758681 0.0248865709 0.0248658694 0.0248187855 0.0247547291
2494.3508312306571 0.0246846154 0.0246174913 0.024558479 0.0245083086 0.024463227 0.0244179051
2495.0740061323536 0.0243684873 0.0243147984 0.0242612921 0.0242161658 0.0241883863 0.0241849869
2495.79718103405 0.0242073033 0.0242508166 0.0243051965 0.024358077 0.0243979972 0.0244179405
2496.5203559357465 0.0244179051 0.0244033244 0.024384398 0.0243708342 0.024370309 0.0243850984
2497.2435308374424 0.0244122613 0.024444649 0.0244743042 0.0244949516 0.0245044883 0.0245052595
2497.9667057391389 0.0245030504 0.0245046634 0.0245149694 0.0245345682 0.0245591812 0.0245808493
2498.6898806408353 0.0245900713 0.0245787445 0.0245430171 0.0244845748 0.0244104732 0.0243314784
2499.4130555425318 0.0242601726 0.0242083538 0.0241834465 0.0241880007 0.0242181644 0.0242644809
2500.1362304442282 0.0243125204 0.0243475996 0.0243575517 0.0243372619 0.0242907256 0.0242313016
2500.8594053459246 0.0241787862 0.0241524801 0.0241664555 0.02422419 0.0243175328 0.0244287699
2501.5825802476206 0.0245364606 0.0246236641 0.0246810019 0.0247100424 0.0247191973 0.024719933
2502.3057551493171 0.0247202832 0.0247218274 0.0247198287 0.0247064997 0.0246762317 0.024628574
2503.0289300510135 0.0245700497 0.0245116036 0.0244650505 0.0244376734 0.0244302079 0.0244360603
2503.7521049527099 0.0244442988 0.0244432464 0.0244236887 0.0243826453 0.0243225787 0.0242520776
2504.4752798544064 0.0241821148 0.0241260678 0.0240960512 0.0241006054 0.0241421107 0.0242156405
2505.1984547561028 0.0243083853 0.0244013611 0.0244734623 0.0245078877 0.0244956538 0.0244395304
2505.9216296577993 0.0243537668 0.0242606979 0.0241835155 0.0241408497 0.0241426006 0.0241871588
2506.6448045594952 0.0242634658 0.0243541878 0.02444195 0.0245114993 0.0245533958 0.0245659128
2507.3679794611917 0.0245535355 0.0245264694 0.0244970899 0.0244777389 0.0244771447 0.0244966354
2508.0911543628881 0.0245302208 0.024565421 0.0245866701 0.0245801825 0.0245384593 0.0244637188
2508.8143292645846 0.0243667345 0.0242633242 0.0241695046 0.0240960512 0.0240465645 0.0240168683
2509.537504166281 0.0239988342 0.0239852481 0.0239728186 0.0239639953 0.0239647292 0.0239829384
2510.2606790679774 0.0240220856 0.0240799747 0.0241473299 0.0242102109 0.0242545661 0.0242688265
2510.9838539696739 0.0242493805 0.0242010318 0.0241371375 0.0240756683 0.0240349732 0.0240292996
2511.7070288713699 0.0240636207 0.0241321977 0.0242192149 0.0243036207 0.0243636146 0.0243828204
2512.4302037730663 0.0243564304 0.02429034 0.0242007524 0.0241074339 0.0240303855 0.0239833575
2513.1533786747627 0.0239720475 0.0239954386 0.0240473002 0.0241201147 0.024206182 0.0242994148
2513.8765535764592 0.0243947376 0.0244860835 0.0245674197 0.0246318001 0.0246727262 0.0246858764
2514.5997284781556 0.0246692188 0.0246231034 0.0245499238 0.0244540777 0.024341993 0.0242222976
2515.3229033798521 0.0241068043 0.0240095146 0.0239435825 0.0239195991 0.0239415858 0.0240053479
2516.046078281548 0.0240987837 0.024204921 0.0243067741 0.0243898649 0.0244468227 0.0244773887
2516.7692531832445 0.0244875196 0.024486294 0.0244845059 0.0244918671 0.024515707 0.0245601982
2517.4924280849409 0.0246247165 0.0247042906 0.0247891061 0.0248660091 0.0249229223 0.0249506459
2518.2156029866374 0.0249473117 0.0249182917 0.0248756576 0.0248325728 0.0247989297 0.024777811
2518.9387778883338 0.0247651823 0.0247525182 0.0247305259 0.0246954169 0.0246495083 0.024601642
2519.6619527900302 0.0245622657 0.0245398618 0.0245370213 0.0245506261 0.0245734509 0.0245981701
2520.3851276917267 0.0246206131 0.0246413033 0.0246638171 0.0246918742 0.0247267727 0.024765674
2521.1083025934226 0.0248020869 0.0248275567 0.0248352736 0.024821382 0.0247863345 0.0247337185
2521.8314774951191 0.0246702358 0.0246043429 0.024544945 0.0245020334 0.0244846456 0.0244984571
2522.5546523968155 0.0245438237 0.0246138107 0.0246949606 0.0247685499 0.0248156972 0.024823837
2523.277827298512 0.0247897729 0.0247214418 0.0246346407 0.0245509408 0.0244880468 0.0244566016
2524.0010022002084 0.0244576186 0.0244826116 0.0245169681 0.0245441049 0.0245511513 0.0245320778
2524.7241771019048 0.0244885366 0.0244302079 0.0243716408 0.0243290961 0.0243142731 0.0243323911
2525.4473520036013 0.0243793856 0.0244438071 0.0245086588 0.0245585497 0.0245840754 0.0245841797
2526.1705269052973 0.0245650001 0.0245367419 0.0245070811 0.0244764779 0.0244378131 0.0243784394
2526.8937018069937 0.0242870469 0.0241603609 0.0240066089 0.0238443334 0.0236970615 0.0235863607
2527.6168767086901 0.0235224515 0.0235041585 0.0235194433 0.0235534068 0.0235937424 0.0236364938
2528.3400516103866 0.0236849207 0.0237466842 0.0238257479 0.0239197388 0.0240177438 0.0241055787
2529.063226512083 0.0241718851 0.024213329 0.0242366623 0.0242566336 0.0242897794 0.0243464429
2529.7864014137795 0.0244274735 0.0245230682 0.0246179476 0.024695592 0.0247445572 0.0247606225
2530.5095763154754 0.0247459244 0.0247058682 0.0246461779 0.0245723985 0.0244899392 0.024406163
2531.2327512171719 0.0243316535 0.0242786016 0.0242566671 0.0242695268 0.0243111551 0.0243674703
2531.9559261188683 0.0244187117 0.0244478732 0.0244468227 0.0244183596 0.024375882 0.024337858
2532.6791010205648 0.0243213158 0.0243348088 0.0243780538 0.0244425107 0.0245169327 0.0245904215
2533.4022759222612 0.0246568043 0.0247133393 0.0247591138 0.0247926135 0.0248106457 0.02480991
2534.1254508239576 0.0247891061 0.0247523785 0.0247093067 0.0246723741 0.0246529114 0.0246568732
2534.8486257256541 0.0246826857 0.0247217566 0.0247637443 0.0248000864 0.0248288885 0.02485401
2535.5718006273501 0.0248821843 0.0249174498 0.0249574892 0.0249927957 0.0250085182 0.0249913912
2536.2949755290465 0.024935592 0.0248464663 0.0247399267 0.0246362872 0.0245571118 0.0245150048
2537.0181504307429 0.0245133918 0.0245464891 0.0246039573 0.0246749707 0.0247510113 0.0248282216
2537.7413253324394 0.0249044299 0.024976125 0.0250378978 0.025082266 0.0251020305 0.0250947624
2538.4645002341358 0.0250638016 0.0250190478 0.0249726847 0.0249359421 0.0249138698 0.0249035191
2539.1876751358323 0.0248949211 0.0248758327 0.0248365365 0.0247738473 0.0246936288 0.0246087257
2539.9108500375287 0.0245357249 0.0244888868 0.0244756714 0.0244940408 0.0245335866 0.0245781485
2540.6340249392247 0.0246107243 0.0246199816 0.0246024486 0.0245653167 0.0245224014 0.0244916212
2541.3571998409211 0.0244877301 0.0245167576 0.0245735552 0.02464246 0.0247013792 0.0247278605
2542.0803747426176 0.0247070268 0.0246363226 0.0245259088 0.0243952628 0.0242677052 0.024163723
2542.803549644314 0.0240948964 0.0240633041 0.0240629893 0.0240847729 0.0241196938 0.0241628475
2543.5267245460104 0.024212908 0.0242698081 0.0243318304 0.0243931599 0.0244438071 0.0244719908
2544.2498994477069 0.0244687665 0.0244314 0.0243661385 0.0242864154 0.0242115427 0.0241595209
2544.9730743494029 0.0241430923 0.0241665971 0.024224015 0.0243013073 0.0243795961 0.0244413894
2545.6962492510993 0.0244738832 0.0244722366 0.0244404431 0.0243902504 0.0243370514 0.0242943354
2546.4194241527957 0.0242718738 0.0242718048 0.0242889728 0.024313923 0.0243362803 0.0243498068
2547.1425990544922 0.0243539419 0.0243532062 0.0243563261 0.0243712198 0.0244018864 0.0244467519
2547.8657739561886 0.0244998951 0.0245536063 0.0246020984 0.0246445648 0.024683984 0.0247256514
2548.588948857885 0.0247734264 0.0248255916 0.024873903 0.0249056239 0.0249084309 0.0248754118
2549.3121237595815 0.0248093829 0.0247234758 0.0246395152 0.0245804992 0.0245632473 0.0245944187
2550.0352986612775 0.0246667992 0.0247620959 0.0248552375 0.0249235891 0.0249522962 0.0249379072
2550.7584735629739 0.0248889569 0.0248225387 0.0247602016 0.0247189514 0.0247107781 0.0247377157
2551.4816484646703 0.024793772 0.0248661134 0.0249388199 0.0249976385 0.0250303857 0.0250302106
2552.2048233663668 0.0249956734 0.0249294508 0.024838116 0.0247303154 0.0246163346 0.0245062411
2552.9279982680632 0.024409458 0.0243347734 0.0242882371 0.0242736619 0.0242906902 0.0243355446
2553.6511731697597 0.0243993979 0.0244697481 0.0245331302 0.0245761499 0.0245889481 0.0245683324
2554.3743480714561 0.0245181248 0.0244489945 0.0243759509 0.0243156757 0.0242816862 0.0242814757
2555.0975229731521 0.0243155695 0.0243779495 0.0244587045 0.0245464537 0.0246323962 0.0247114804
2555.8206978748485 0.0247828625 0.0248487461 0.0249121506 0.0249748267 0.0250370186 0.0250960272
2556.543872776545 0.025147846 0.0251886435 0.0252154004 0.0252265316 0.0252214409 0.0251997393
2557.2670476782414 0.0251601338 0.0251003094 0.0250177495 0.0249113776 0.0247837044 0.0246423203
2557.9902225799378 0.024499299 0.024369467 0.0242674947 0.0242027137 0.0241763704 0.0241802223
2558.7133974816343 0.0241995603 0.0242166221 0.0242162365 0.0241930448 0.0241518486 0.0241079945
2559.4365723833303 0.0240809564 0.0240896773 0.0241448432 0.0242453869 0.0243780538 0.0245207194
2560.1597472850267 0.0246502459 0.0247452576 0.0247937012 0.0247939825 0.024754554 0.0246899109
2560.8829221867231 0.0246178433 0.0245558154 0.0245166887 0.0245073978 0.0245278366 0.0245711375
2561.6060970884196 0.024624506 0.0246723387 0.0247016251 0.0247037634 0.0246786177 0.0246340092
2562.329271990116 0.0245835483 0.0245408788 0.0245145485 0.0245047677 0.0245029442 0.0244963896
2563.0524468918125 0.0244730767 0.0244287346 0.024369048 0.0243091565 0.0242675301 0.0242593307
2563.7756217935089 0.0242904797 0.0243556239 0.0244398825 0.0245239791 0.0245931223 0.0246393383
2564.4987966952049 0.0246643778 0.0246759169 0.024683632 0.0246938039 0.0247070268 0.0247193016
2565.2219715969013 0.0247252304 0.0247214418 0.0247101821 0.0246969946 0.0246895943 0.0246940143
2565.9451464985978 0.0247102883 0.0247335434 0.0247539915 0.0247626919 0.024753781 0.0247274749
2566.6683214002942 0.0246885084 0.0246454068 0.0246052537 0.0245716982 0.0245431233 0.0245147943
2567.3914963019906 0.0244818069 0.0244424399 0.0244010109 0.0243673641 0.0243550632 0.0243758112
2568.1146712036871 0.0244349744 0.0245280825 0.0246410221 0.0247524492 0.0248389225 0.024883166
2568.8378461053835 0.0248780437 0.0248291343 0.024753185 0.0246724803 0.0246092863 0.0245774835
2569.5610210070795 0.0245803241 0.0246092863 0.0246487018 0.0246788282 0.0246827565 0.0246506315
2570.2841959087759 0.0245805345 0.0244783349 0.0243548192 0.024224434 0.0241009556 0.0239964891
2571.0073708104724 0.0239200201 0.0238761548 0.0238654763 0.0238849763 0.023928633 0.0239898358
2571.7305457121688 0.0240623951 0.0241429508 0.0242298655 0.0243230686 0.0244217608 0.0245225783
2572.4537206138652 0.0246188603 0.0247020815 0.0247630067 0.02479521 0.0247970689 0.0247728638
2573.1768955155617 0.0247305259 0.0246804412 0.0246325359 0.0245940685 0.0245692432 0.0245591812
2573.9000704172577 0.0245634932 0.024579972 0.0246055704 0.0246361122 0.0246667638 0.0246922597
2574.6232453189541 0.0247085337 0.0247133393 0.0247064997 0.0246897358 0.0246653259 0.0246345345
2575.3464202206505 0.0245977845 0.0245549735 0.0245076083 0.0244602133 0.0244205687 0.0243977513
2576.069595122347 0.0243982766 0.0244231969 0.0244655404 0.0245119892 0.0245463476 0.0245562345
2576.7927700240434 0.0245375484 0.0244970564 0.0244491361 0.0244112443 0.0243974011 0.0244120508
2577.5159449257399 0.0244500823 0.0244992636 0.0245462786 0.0245815851 0.0246032551 0.0246158447
2578.2391198274363 0.0246274509 0.0246442482 0.0246669389 0.0246897358 0.0247026067 0.0246955212
2578.9622947291323 0.0246616434 0.0246015377 0.0245216656 0.0244334675 0.0243489668 0.0242784973
2579.6854696308287 0.0242289901 0.0242031701 0.0242001563 0.024216868 0.0242488198 0.024290761
2580.4086445325252 0.0243374016 0.0243842583 0.0244277548 0.0244662426 0.0244991947 0.0245271698
2581.1318194342216 0.0245497134 0.0245660525 0.0245741513 0.0245724339 0.0245606881 0.0245422106
2581.854994335918 0.0245229285 0.0245105177 0.024511639 0.0245285369 0.0245575327 0.0245883185
2582.5781692376145 0.0246082004 0.0246038157 0.0245675258 0.0244998951 0.0244114548 0.0243195649
2583.3013441393109 0.0242435634 0.0242020488 0.0242049564 0.0242525693 0.0243347734 0.0244345888
2584.0245190410069 0.0245329905 0.0246131085 0.0246655364 0.0246897358 0.0246929619 0.0246863682
2584.7476939427033 0.0246813186 0.0246848948 0.0246973801 0.0247134455 0.0247241426 0.0247223526
2585.4708688443998 0.0247053076 0.024677109 0.0246476848 0.024629835 0.0246352013 0.0246697795
2586.1940437460962 0.0247328412 0.024817206 0.0249113087 0.0250016041 0.0250763334 0.0251271669
2586.9172186477927 0.0251488276 0.0251398403 0.0251013283 0.0250374414 0.024954576 0.0248614829
2587.6403935494891 0.0247686543 0.0246857721 0.0246209987 0.024578711 0.0245585497 0.0245557446
2588.3635684511851 0.0245628264 0.0245722588 0.0245775189 0.0245749578 0.024564229 0.0245474353
2589.0867433528815 0.0245279763 0.0245101675 0.0244977921 0.0244941451 0.024500737 0.0245175641
2589.809918254578 0.0245422106 0.0245701205 0.0245953649 0.0246127937 0.0246191751 0.0246150717
2590.5330931562744 0.0246049035 0.0245960671 0.0245961715 0.0246103387 0.0246395487 0.0246798452
2591.2562680579708 0.024723826 0.0247631818 0.024791386 0.0248059444 0.02480812 0.0248020869
2591.9794429596673 0.0247925799 0.0247831419 0.0247749332 0.0247670412 0.0247577447 0.0247459244
2592.7026178613637 0.0247320347 0.0247177929 0.0247050263 0.0246951003 0.0246875249 0.0246812832
2593.4257927630597 0.0246751457 0.0246699192 0.0246692542 0.0246785115 0.0247038342 0.0247481689
2594.1489676647561 0.0248094536 0.0248803254 0.0249483995 0.0250001308 0.025024699 0.0250176098
2594.8721425664526 0.0249819513 0.0249267835 0.0248643607 0.0248060152 0.0247583427 0.0247221775
2595.595317468149 0.0246941894 0.0246692877 0.0246444233 0.0246207174 0.0246031154 0.0245992932
2596.3184923698454 0.024615949 0.0246550851 0.0247130934 0.0247799847 0.0248429924 0.0248885695
2597.0416672715419 0.0249073077 0.0248960797 0.0248583611 0.0248031393 0.0247432236 0.0246920139
2597.7648421732383 0.0246602409 0.0246548392 0.0246776361 0.024725195 0.0247902647 0.0248626415
2598.4880170749343 0.0249325037 0.0249911807 0.0250328779 0.0250554122 0.0250595547 0.0250479355
2599.2111919766307 0.025022909 0.0249867234 0.0249402933 0.0248840097 0.0248191357 0.0247488003
2599.9343668783272 0.0246787574 0.0246168617 0.0245712418 0.0245482773 0.0245509055 0.0245770626
2600.6575417800236 0.0246195961 0.0246673953 0.024709411 0.0247353315 0.0247397162 0.0247222129
2601.3807166817201 0.0246883668 0.0246477555 0.0246104095 0.0245862845 0.0245808493 0.0245951544
2602.1038915834165 0.0246254876 0.0246653948 0.0247074123 0.0247441363 0.0247704089 0.0247821603
2602.8270664851125 0.0247761626 0.0247502048 0.0247026067 0.0246341489 0.024549434 0.0244587399
2603.5502413868089 0.0243773535 0.0243219119 0.0243079662 0.0243439544 0.0244279634 0.0245473646
2604.2734162885054 0.0246818792 0.0248097684 0.0249124654 0.0249807928 0.0250155386 0.0250255764
2604.9965911902018 0.0250224527 0.025014976 0.0250062384 0.0249926541 0.0249678772 0.0249264315
2605.7197660918982 0.0248686764 0.0248025768 0.0247419607 0.0247011688 0.0246899799 0.0247091651
2606.4429409935947 0.0247483104 0.0247891061 0.0248100851 0.0247957017 0.0247396808 0.024649404
2607.1661158952911 0.0245428421 0.0244448949 0.0243784748 0.0243577976 0.0243849233 0.0244491361
2607.8892907969871 0.0245302897 0.0246043783 0.0246525593 0.0246645194 0.024641268 0.0245931223
2608.6124656986835 0.0245368816 0.02449001 0.0244649798 0.0244686957 0.0245010164 0.0245572515
2609.33564060038 0.0246295203 0.0247093067 0.0247888602 0.0248603597 0.0249168873 0.0249520149
2610.0588155020764 0.024960788 0.0249411706 0.0248948503 0.0248277318 0.0247481689 0.0246659573
2610.7819904037729 0.0245904215 0.0245278366 0.0244820509 0.0244545694 0.02444507 0.0244522896
2611.5051653054693 0.0244734976 0.0245049428 0.0245410893 0.0245755892 0.0246022381 0.0246175975
2612.2283402071657 0.0246211048 0.0246167202 0.0246109702 0.0246109702 0.0246221554 0.0246462468
2612.9515151088617 0.0246811081 0.0247220378 0.024762271 0.0247958768 0.024817137 0.0248207841
2613.6746900105582 0.0248030331 0.024761498 0.0246966444 0.0246139858 0.0245247856 0.0244448241
2614.3978649122546 0.0243902504 0.0243743397 0.0244012568 0.0244647339 0.024548592 0.0246320795
2615.121039813951 0.0246965736 0.0247297548 0.02473028 0.024705518 0.0246687271 0.024631694
2615.8442147156475 0.0246023089 0.0245823916 0.0245691389 0.0245582331 0.0245472603 0.0245369524
2616.5673896173439 0.0245304313 0.0245308857 0.0245396867 0.0245551839 0.0245739426 0.0245927367
2617.2905645190399 0.0246101283 0.0246276613 0.0246479306 0.0246728305 0.0247012042 0.0247289483
2618.0137394207363 0.0247496068 0.0247590076 0.0247573946 0.0247512553 0.0247512553 0.0247689355
2618.7369143224328 0.0248116981 0.024878921 0.0249616299 0.0250441097 0.0251100343 0.0251458436
2619.4600892241292 0.0251449663 0.0251086298 0.0250444952 0.0249627531 0.0248731319 0.0247843359
2620.1832641258256 0.0247027818 0.0246341489 0.0245848466 0.0245610029 0.0245668236 0.0246025547
2620.9064390275221 0.0246619936 0.0247326661 0.0247978419 0.0248419754 0.0248545706 0.0248342566
2621.6296139292185 0.0247892123 0.0247352254 0.0246900152 0.024666518 0.0246699899 0.0246959087
2622.3527888309145 0.0247328412 0.0247660596 0.0247840192 0.0247821249 0.0247628316 0.0247341394
2623.0759637326109 0.0247046761 0.0246809665 0.0246634316 0.0246484224 0.0246300809 0.0246044472
2623.7991386343074 0.024572609 0.0245409831 0.0245183706 0.0245132875 0.0245287828 0.0245610382
2624.5223135360038 0.024599608 0.0246307123 0.0246430207 0.0246305373 0.0245954003 0.0245458577
2625.2454884377003 0.0244946368 0.0244533066 0.0244291555 0.0244238637 0.0244341679 0.0244541131
2625.9686633393967 0.0244779158 0.0245021395 0.0245261882 0.0245518181 0.0245810952 0.0246152133
2626.6918382410931 0.0246529114 0.0246912073 0.0247255098 0.0247513261 0.0247661285 0.0247694273
2627.4150131427891 0.0247637089 0.0247536413 0.0247444864 0.0247409083 0.0247451533 0.0247563776
2628.1381880444856 0.0247706901 0.0247827563 0.0247872826 0.0247814581 0.024765674 0.0247443803
2628.861362946182 0.0247233007 0.0247080438 0.0247019045 0.0247043949 0.0247117262 0.0247189868
2629.5845378478784 0.0247227047 0.0247220732 0.0247201081 0.0247215815 0.0247313324 0.0247511156
2630.3077127495749 0.0247785114 0.0248071384 0.024829451 0.0248389579 0.0248335209 0.024815768
2631.0308876512713 0.0247922633 0.0247711446 0.0247579217 0.0247542728 0.0247568339 0.0247586221
2631.7540625529673 0.0247518178 0.0247311573 0.0246962588 0.0246521737 0.024608165 0.0245742928
2632.4772374546637 0.0245588645 0.024565177 0.0245909467 0.0246285032 0.0246672537 0.0246972758
2633.2004123563602 0.0247109551 0.0247055534 0.0246828608 0.0246482119 0.02460883 0.0245717671
2633.9235872580566 0.0245430171 0.0245267153 0.0245253127 0.0245392658 0.0245674197 0.0246067271
2634.6467621597531 0.0246515423 0.0246952064 0.0247299653 0.0247497484 0.0247519929 0.0247387346
2635.3699370614495 0.0247167423 0.0246956982 0.024685597 0.0246941894 0.0247238968 0.0247719176
2636.0931119631459 0.0248310287 0.0248922203 0.0249461886 0.0249863379 0.0250091497 0.0250141695
2636.8162868648419 0.0250030085 0.0249786172 0.0249445401 0.0249037985 0.0248592719 0.0248132776
2637.5394617665384 0.024767708 0.0247239321 0.0246840529 0.0246508773 0.0246290285 0.0246232077
2638.2626366682348 0.0246378314 0.0246743727 0.0247292984 0.0247937366 0.0248542558 0.0248972364
2638.9858115699312 0.0249127112 0.0248980448 0.024859624 0.0248108916 0.0247686543 0.0247451533
2639.7089864716277 0.0247461349 0.0247671809 0.0247967541 0.0248200838 0.0248246081 0.0248046126
2640.4321613733241 0.0247617792 0.024703905 0.024641268 0.0245835483 0.0245375484 0.0245061703
2641.1553362750205 0.0244903602 0.0244895536 0.0245031212 0.024529485 0.024566263 0.0246088654
2641.8785111767165 0.0246514734 0.0246881917 0.024714848 0.0247300696 0.0247349106 0.0247322805
2642.601686078413 0.0247250535 0.0247146022 0.0247010645 0.0246847551 0.0246669389 0.0246515423
2643.3248609801094 0.024643898 0.0246489476 0.0246688668 0.0247013792 0.02473961 0.0247741621
2644.0480358818058 0.0247970335 0.024803875 0.0247953497 0.0247761961 0.0247528348 0.0247302111
2644.7712107835023 0.0247102883 0.0246924348 0.0246750396 0.0246588029 0.0246468782 0.0246444233
2645.4943856851987 0.024656523 0.0246841945 0.024722809 0.0247630421 0.0247925092 0.024801841
2646.2175605868947 0.0247876327 0.0247548688 0.0247143209 0.0246789679 0.0246595033 0.0246591885
2646.9407354885911 0.0246740934 0.0246936977 0.0247069206 0.0247053429 0.0246876311 0.0246584862
2647.6639103902876 0.0246280115 0.0246072877 0.0246032551 0.0246177372 0.0246458612 0.0246788971
2648.387085291984 0.0247065704 0.0247211959 0.0247196872 0.0247045364 0.0246824753 0.0246623103
2649.1102601936805 0.0246520694 0.0246562418 0.0246745832 0.024702115 0.024730701 0.0247512553
2649.8334350953769 0.0247558504 0.0247406978 0.0247066747 0.0246590823 0.0246066563 0.0245595314
2650.5566099970733 0.024526434 0.0245130062 0.0245199483 0.0245435424 0.0245762914 0.0246085506
2651.2797848987693 0.0246312376 0.0246381816 0.024627205 0.0246002395 0.0245623365 0.0245202631
2652.0029598004658 0.0244795978 0.0244435631 0.0244130678 0.0243872367 0.0243648421 0.0243463032
2652.7261347021622 0.0243335459 0.0243297964 0.0243380331 0.0243583228 0.0243880078 0.0244209189
2653.4493096038586 0.0244504679 0.0244703423 0.0244784057 0.0244764779 0.0244697481 0.0244641379
2654.1724845055551 0.0244643129 0.02447192 0.0244855918 0.0245018937 0.0245179143 0.0245327093
2654.8956594072515 0.024547575 0.024565246 0.0245876871 0.0246148277 0.0246441439 0.0246717092
2655.618834308948 0.0246941186 0.024710428 0.0247234404 0.0247387681 0.0247622002 0.0247975606
2656.3420092106439 0.0248438343 0.0248954128 0.0249437336 0.0249796342 0.0249968655 0.0249939188
2657.0651841123404 0.0249738786 0.0249431003 0.0249079745 0.0248731673 0.0248395894 0.0248052441
2657.7883590140368 0.0247667599 0.0247218274 0.0246704817 0.02461637 0.024564825 0.0245219823
2658.5115339157333 0.0244919024 0.0244748648 0.0244677849 0.0244653299 0.0244621411 0.0244547091
2659.2347088174297 0.0244428255 0.0244294014 0.0244192723 0.0244164672 0.0244231615 0.0244384799
2659.9578837191261 0.024459336 0.0244823676 0.0245053638 0.0245289225 0.0245552529 0.0245875455
2660.6810586208221 0.0246270653 0.0246720947 0.0247176178 0.0247571487 0.024784686 0.0247973148
2661.4042335225186 0.024796648 0.0247870367 0.0247739516 0.0247607976 0.0247477479 0.0247315429
2662.127408424215 0.0247081127 0.0246752501 0.0246346053 0.0245918948 0.024555359 0.0245315172
2662.8505833259114 0.0245225783 0.0245246813 0.0245296955 0.0245280825 0.0245129373 0.024483664
2663.5737582276079 0.0244453158 0.024407424 0.0243792459 0.0243672598 0.0243723765 0.0243912674
2664.2969331293043 0.0244179051 0.0244472083 0.0244765822 0.0245063454 0.0245381091 0.0245727506
2665.0201080310007 0.0246087965 0.0246425997 0.0246698149 0.0246873852 0.0246954523 0.02469703
2665.7432829326967 0.0246966444 0.0246977676 0.0247008875 0.0247027464 0.0246979073 0.0246810373
2666.4664578343932 0.0246502459 0.0246078484 0.0245612487 0.0245195273 0.0244910251 0.024480544
2667.1896327360896 0.0244872402 0.0245059952 0.0245277658 0.0245438945 0.0245470498 0.0245329551
2667.912807637786 0.0245004203 0.0244518351 0.0243908819 0.0243231039 0.0242546704 0.0241925903
2668.6359825394825 0.0241433363 0.0241129342 0.0241047367 0.0241192039 0.0241533555 0.0242011715
2669.3591574411789 0.0242555812 0.0243094377 0.0243573766 0.0243973657 0.0244292263 0.0244544633
2670.0823323428749 0.0244740248 0.0244873445 0.0244921483 0.0244845748 0.024461966 0.0244237576
2670.8055072445713 0.0243732184 0.0243177079 0.024266094 0.0242276583 0.0242090896 0.0242119972
2671.5286821462678 0.0242336486 0.0242673196 0.0243055485 0.024340976 0.024369467 0.0243893042
2672.2518570479642 0.0244021323 0.0244100876 0.0244160127 0.0244222861 0.024431048 0.0244444031
2672.9750319496607 0.0244643483 0.0244922172 0.0245275907 0.0245670695 0.024605114 0.0246333424
2673.6982068513571 0.0246440731 0.0246321857 0.0245975051 0.0245454721 0.0244851019 0.0244277883
2674.4213817530535 0.0243837312 0.0243587792 0.0243547484 0.0243687313 0.024396209 0.0244309083
2675.1445566547495 0.0244681351 0.0245041717 0.0245363563 0.0245628972 0.0245817956 0.0245925263
2675.867731556446 0.0245943498 0.0245890189 0.0245788153 0.02456728 0.024557393 0.0245514661
2676.5909064581424 0.02455003 0.0245524831 0.0245575681 0.0245638788 0.0245704707 0.0245769229
2677.3140813598388 0.0245824624 0.0245862845 0.0245871954 0.0245837942 0.0245757643 0.0245635975
2678.0372562615353 0.0245489776 0.0245341826 0.0245211404 0.0245104115 0.0245012268 0.0244912002
2678.7604311632317 0.0244778097 0.0244590901 0.024434343 0.0244051814 0.0243744086 0.0243454259
2679.4836060649282 0.0243223328 0.0243078247 0.0243039355 0.0243116803 0.0243305322 0.0243585687
2680.2067809666241 0.0243925285 0.0244285259 0.024461966 0.0244882908 0.0245046634 0.0245096404
2680.9299558683206 0.0245039258 0.0244893432 0.024469221 0.0244467165 0.0244245641 0.0244050063
2681.653130770017 0.0243892688 0.0243782997 0.0243720263 0.0243698191 0.0243704487 0.0243716054
2682.3763056717135 0.0243707653 0.0243657529 0.0243553445 0.0243398901 0.0243208259 0.024301799
2683.0994805734099 0.024286136 0.0242773406 0.0242778659 0.0242888685 0.0243097171 0.0243388023
2683.8226554751063 0.0243733581 0.0244100876 0.0244449284 0.024473954 0.0244936552 0.024501333
2684.5458303768023 0.0244957935 0.0244777389 0.0244498719 0.0244160816 0.0243818741 0.0243526809
2685.2690052784988 0.0243325997 0.0243241545 0.0243272744 0.0243393648 0.0243556593 0.0243711844
2685.9921801801952 0.0243819803 0.0243858695 0.0243839771 0.0243797712 0.0243781935 0.024382716
2686.7153550818916 0.0243946668 0.0244117361 0.0244292971 0.0244414937 0.0244440529 0.0244362019
2687.4385299835881 0.0244207792 0.0244028326 0.0243877973 0.0243787207 0.0243753549 0.0243745837
2688.1617048852845 0.0243718158 0.0243642461 0.0243521556 0.0243391544 0.0243301131 0.0243293066
2688.8848797869809 0.0243376475 0.024351595 0.0243650172 0.0243712198 0.0243666992 0.024352435
2689.6080546886769 0.0243341774 0.0243194941 0.0243149381 0.0243230686 0.0243412554 0.0243620723
2690.3312295903734 0.0243768971 0.0243787207 0.0243647713 0.0243370868 0.0243012384 0.0242648665
2691.0544044920698 0.0242343843 0.0242137145 0.0242039058 0.0242042895 0.0242125932 0.0242267828
2691.7775793937662 0.0242453516 0.0242669694 0.0242900252 0.0243124515 0.0243311636 0.024343079
2692.5007542954627 0.0243451465 0.0243356135 0.0243143775 0.0242832266 0.0242461916 0.0242089145
2693.2239291971591 0.0241776314 0.0241585393 0.0241555627 0.024169609 0.0241976343 0.0242335089
2693.9471040988556 0.0242694225 0.0242972784 0.0243117493 0.0243115053 0.0242987499 0.0242787078
2694.6702790005515 0.0242576841 0.0242407955 0.0242314413 0.0242297947 0.0242348053 0.024244545
2695.393453902248 0.0242570192 0.0242711734 0.0242857859 0.0242994856 0.0243104529 0.0243159905
2696.1166288039444 0.0243137125 0.0243025701 0.0242834371 0.024259856 0.0242370479 0.0242207553
2696.8398037056409 0.0242156759 0.0242241193 0.0242451411 0.0242743269 0.0243054777 0.0243318994
2697.5629786073373 0.0243481249 0.0243519451 0.0243445858 0.0243312344 0.024318058 0.0243116803
2698.2861535090337 0.0243158843 0.0243303925 0.0243502986 0.0243681706 0.0243756361 0.0243663844
2699.0093284107297 0.0243385229 0.0242953505 0.0242441241 0.0241937451 0.0241527949 0.024126349
2699.7325033124262 0.0241157003 0.0241183285 0.0241289753 0.0241423212 0.0241533909 0.0241587497
2700.4556782141226 0.0241568238 0.0241473299 0.0241314285 0.0241116378 0.024091674 0.0240762979
2701.178853115819 0.0240700301 0.0240767188 0.0240975916 0.0241304822 0.0241699591 0.0242094044
2701.9020280175155 0.0242411811 0.0242595766 0.0242624134 0.0242507122 0.0242290944 0.0242030285
2702.6252029192119 0.0241787173 0.0241610259 0.0241530053 0.024155492 0.0241677519 0.024188105
2703.3483778209084 0.024213925 0.0242425483 0.0242721904 0.0243008528 0.0243277289 0.024352191
2704.0715527226043 0.0243735686 0.0243903566 0.0244011506 0.0244037788 0.02439663 0.0243791416
2704.7947276243008 0.0243521556 0.0243173912 0.0242774803 0.0242344551 0.0241897162 0.0241441075
2705.5179025259972 0.0240991693 0.0240580514 0.0240264628 0.0240118969 0.0240214914 0.0240599085
2706.2410774276937 0.0241261385 0.0242132246 0.0243081413 0.0243965238 0.0244654361 0.0245072916
2706.9642523293901 0.0245219469 0.0245153196 0.0244976524 0.0244781598 0.0244633332 0.024454359
2707.6874272310865 0.0244487152 0.0244415645 0.0244283155 0.0244070739 0.024378404 0.0243454259
2708.410602132783 0.0243117847 0.0242807399 0.02425397 0.0242321771 0.0242147651 0.0242011379
2709.133777034479 0.0241904166 0.0241816603 0.0241738129 0.0241658948 0.024157593 0.0241488013
2709.8569519361754 0.0241410956 0.024136506 0.0241371375 0.0241441075 0.0241566133 0.0241723768
2710.5801268378718 0.0241877548 0.0241989996 0.0242037643 0.0242017675 0.024194831 0.024186423
2711.3033017395683 0.0241804682 0.0241798721 0.0241863187 0.0241995268 0.0242175329 0.024237223
2712.0264766412647 0.0242544953 0.0242653918 0.0242666546 0.0242558625 0.0242329128 0.0241997018
2712.7496515429611 0.0241598003 0.024118118 0.0240794495 0.0240476504 0.024024643 0.0240105651
2713.4728264446571 0.0240046121 0.0240055937 0.0240124222 0.0240247119 0.0240418725 0.024063129
2714.1960013463536 0.0240866654 0.0241109375 0.024134405 0.0241573844 0.0241816938 0.0242107008
2714.91917624805 0.0242473837 0.0242926534 0.0243440941 0.0243959278 0.0244397074 0.0244674683
2715.6423511497464 0.0244743749 0.0244599674 0.0244290866 0.0243890248 0.0243487563 0.024314519
2716.3655260514429 0.0242891144 0.0242713131 0.0242575798 0.0242440552 0.0242279377 0.024209721
2717.0887009531393 0.0241917837 0.0241785422 0.0241738129 0.0241800137 0.0241974238 0.0242241547
2717.8118758548358 0.024256913 0.0242915656 0.02432454 0.0243522953 0.024372587 0.0243845023
2718.5350507565317 0.024388358 0.0243857298 0.0243793502 0.0243728328 0.0243698526 0.0243729018
2719.2582256582282 0.024383137 0.0243995395 0.0244190264 0.0244367979 0.0244479794 0.0244485047
2719.9814005599246 0.0244357102 0.024409527 0.0243718866 0.0243268888 0.0242781807 0.0242293049
2720.7045754616211 0.0241823606 0.0241379775 0.0240962971 0.0240579117 0.0240244325 0.0239996053
2721.4277503633175 0.0239880141 0.0239936169 0.0240182336 0.0240600482 0.02411367 0.0241707303
2722.1509252650139 0.0242226832 0.0242622737 0.0242855046 0.024291601 0.0242818948 0.0242586993
2722.8741001667104 0.0242236648 0.0241783671 0.0241248421 0.0240668766 0.024011476 0.0239681266
2723.5972750684064 0.0239465591 0.0239542965 0.0239928123 0.0240575615 0.0241371375 0.0242176373
2724.3204499701028 0.0242867656 0.0243361052 0.0243635457 0.0243730769 0.0243711155 0.0243643504
2725.0436248717992 0.0243566055 0.0243486501 0.0243387334 0.0243241545 0.0243041106 0.0242797937
2725.7667997734957 0.024254391 0.0242324229 0.0242177788 0.0242136437 0.0242214222 0.024241006
2726.4899746751921 0.0242712088 0.0243091565 0.0243507177 0.0243902504 0.0244213752 0.0244391449
2727.2131495768886 0.0244402327 0.0244249497 0.0243969802 0.0243621785 0.0243261531 0.0242922679
2727.9363244785845 0.024261117 0.0242309514 0.0241996665 0.0241668057 0.0241351053 0.0241095703
2728.659499380281 0.0240954552 0.0240958072 0.0241086949 0.0241282396 0.0241460335 0.0241544768
2729.3826742819774 0.0241503417 0.024135245 0.0241160858 0.0241005346 0.02409444 0.0240995549
2730.1058491836739 0.0241128989 0.0241283458 0.0241393447 0.0241421107 0.0241360515 0.0241231956
2730.8290240853703 0.0241064895 0.0240882766 0.0240696091 0.0240511168 0.0240345187 0.0240236279
2731.5521989870667 0.0240241531 0.0240415223 0.0240790658 0.02413458 0.0242004022 0.024265077
2732.2753738887632 0.0243166555 0.0243456718 0.0243489314 0.0243283249 0.0242905151 0.024242688
2732.9985487904592 0.0241908375 0.0241387486 0.0240881704 0.0240409262 0.0240004808 0.0239719786
2733.7217236921556 0.0239613689 0.0239727478 0.0240055937 0.0240547955 0.0241108313 0.0241633393
2734.444898593852 0.0242034849 0.0242272373 0.0242358912 0.024234945 0.0242309161 0.0242290236
2735.1680734955485 0.0242316872 0.0242375731 0.0242439155 0.0242474526 0.0242465064 0.0242418833
2735.8912483972449 0.0242359266 0.024231337 0.0242301114 0.0242328085 0.0242385194 0.0242454559
2736.6144232989413 0.0242526382 0.0242595412 0.024266934 0.024275938 0.0242868718 0.0242988896
2737.3375982006378 0.0243088771 0.0243124161 0.0243046358 0.0242821053 0.0242435988 0.024191888
2738.0607731023338 0.024132723 0.0240739174 0.024024047 0.023989765 0.0239741132 0.0239763204
2738.7839480040302 0.0239921119 0.0240148734 0.0240380205 0.0240566861 0.0240685586 0.0240735319
2739.5071229057266 0.024073286 0.0240693986 0.0240628142 0.0240532886 0.0240402613 0.0240236968
2740.2302978074231 0.0240048226 0.0239863694 0.0239724685 0.0239666216 0.0239706822 0.0239846539
2740.9534727091195 0.024005698 0.0240298957 0.0240531489 0.024072621 0.0240870155 0.0240967516
2741.676647610816 0.0241030212 0.0241071898 0.0241102371 0.0241126176 0.0241151396 0.0241192039
2742.3998225125119 0.0241266284 0.0241397284 0.0241599753 0.0241870545 0.0242183395 0.0242496263
2743.1229974142084 0.0242753774 0.0242914967 0.0242955964 0.0242883079 0.0242725052 0.0242520422
2743.8461723159048 0.0242307764 0.0242101401 0.024190627 0.0241702404 0.0241476111 0.0241214447
2744.5693472176013 0.0240923744 0.0240619387 0.0240322761 0.0240054522 0.0239827968 0.0239655711
2745.2925221192977 0.0239552762 0.0239537712 0.0239644144 0.0239891354 0.0240283888 0.0240788553
2746.0156970209941 0.0241334941 0.02418264 0.0242161658 0.024227377 0.0242153965 0.0241859332
2746.7388719226906 0.0241493974 0.024118118 0.0241016913 0.024104422 0.0241238959 0.0241526552
2747.4620468243866 0.0241818689 0.02420366 0.024214169 0.0242140293 0.0242064279 0.0241959877
2748.185221726083 0.0241853036 0.0241758097 0.0241674017 0.024159871 0.0241543707 0.0241527241
2748.9083966277794 0.0241568573 0.0241675414 0.0241827797 0.0241985805 0.0242097564 0.0242131539
2749.6315715294759 0.0242086686 0.0241999105 0.024192309 0.0241909772 0.0241982304 0.024211403
2750.3547464311723 0.0242240503 0.0242278688 0.0242167618 0.0241880361 0.0241448432 0.0240943357
2751.0779213328688 0.0240462497 0.0240095854 0.0239908863 0.0239931978 0.0240166578 0.0240580514
2751.8010962345652 0.0241125841 0.0241742674 0.024235541 0.024288483 0.0243258718 0.0243421327
2752.5242711362612 0.024334142 0.0243035499 0.0242545661 0.0241937805 0.0241273642 0.0240608528
2753.2474460379576 0.0239972584 0.0239385758 0.0238859206 0.0238411147 0.0238067061 0.0237856004
2753.9706209396541 0.0237799659 0.0237901509 0.0238150712 0.0238520708 0.0238982793 0.0239511095
2754.6937958413505 0.0240088142 0.0240690485 0.0241284855 0.0241822544 0.0242238045 0.0242470335
2755.4169707430469 0.0242486447 0.0242296197 0.0241958816 0.0241570324 0.024123827 0.0241047032
2756.1401456447434 0.0241031609 0.0241169967 0.0241398346 0.0241624974 0.0241768602 0.0241780505
2756.8633205464394 0.0241649505 0.0241408143 0.0241108313 0.0240812711 0.0240574218 0.0240421519
2757.5864954481358 0.024035953 0.0240365136 0.0240402967 0.0240435172 0.024043588 0.0240399465
2758.3096703498322 0.0240352526 0.0240336079 0.024040157 0.0240586121 0.0240895376 0.0241294652
2759.0328452515287 0.0241716057 0.0242085289 0.0242334381 0.0242423378 0.0242352616 0.0242152214
2759.7560201532251 0.0241867043 0.0241543017 0.0241216905 0.0240921639 0.0240686629 0.0240553897
2760.4791950549215 0.0240570717 0.0240781195 0.0241208151 0.0241832715 0.024259191 0.0243380331
2761.202369956618 0.0244079512 0.0244589504 0.0244845413 0.0244834889 0.0244597569 0.0244200081
2761.925544858314 0.0243719909 0.0243227538 0.0242778659 0.0242407266 0.0242132246 0.0241954625
2762.6487197600104 0.0241858978 0.0241809934 0.0241760537 0.0241662469 0.0241479259 0.0241208486
2763.3718946617068 0.0240880307 0.0240563005 0.0240340978 0.0240282845 0.0240428168 0.0240767878
2764.0950695634033 0.0241248421 0.0241782963 0.0242286734 0.024268616 0.024293704 0.0243032705
2764.8182444650997 0.024298504 0.0242824219 0.0242582802 0.0242289193 0.0241967924 0.024163723
2765.5414193667962 0.0241319183 0.0241036527 0.0240815524 0.0240686629 0.0240675434 0.0240797997
2766.2645942684926 0.0241053328 0.0241417252 0.0241842512 0.0242263265 0.024261469 0.0242843833
2766.9877691701886 0.0242932476 0.0242894292 0.0242779013 0.0242646914 0.0242554415 0.0242529549
2767.710944071885 0.0242568087 0.0242640954 0.0242705438 0.0242728554 0.0242691413 0.0242595766
2768.4341189735815 0.0242457706 0.0242287796 0.0242094398 0.0241882801 0.024166001 0.0241443533
2769.1572938752779 0.0241266638 0.0241166819 0.0241167862 0.0241264887 0.0241417605 0.0241554566
2769.8804687769743 0.0241606068 0.0241524093 0.0241310764 0.0241018999 0.0240739863 0.0240575261
2770.6036436786708 0.0240591019 0.0240806416 0.0241185036 0.0241654757 0.024212664 0.0242529884
2771.3268185803668 0.0242832266 0.0243035853 0.0243172515 0.0243286397 0.0243419223 0.0243595857
2772.0499934820632 0.0243824702 0.0244090725 0.0244364459 0.0244607385 0.0244767573 0.0244804043
2772.7731683837596 0.0244687311 0.0244413894 0.0244011506 0.0243534874 0.024305338 0.02426273
2773.4963432854561 0.0242301803 0.0242087748 0.0241972487 0.0241925903 0.0241917484 0.0241932552
2774.2195181871525 0.0241966881 0.0242028888 0.0242125932 0.0242262911 0.0242435634 0.0242641661
2774.942693088849 0.0242886581 0.0243180227 0.0243537314 0.0243955776 0.0244405828 0.0244814213
2775.6658679905454 0.0245077126 0.0245086588 0.0244760569 0.0244080909 0.0243107695 0.0241980553
2776.3890428922414 0.0240879618 0.0239981338 0.0239425674 0.0239269864 0.0239489749 0.0239990447
2777.1122177939378 0.0240649506 0.0241343342 0.0241976343 0.0242503621 0.0242910758 0.0243212823
2777.8353926956343 0.0243424475 0.0243554488 0.0243600048 0.0243554842 0.024342062 0.0243221577
2778.5585675973307 0.0243005026 0.0242840331 0.0242798626 0.0242934581 0.0243266076 0.0243771076
2779.2817424990271 0.0244386196 0.0245014019 0.0245554987 0.0245919991 0.0246044472 0.0245901067
2780.0049174007236 0.0245495383 0.0244861171 0.0244050063 0.0243129414 0.0242175329 0.0241267346
2780.72809230242 0.0240487717 0.0239909906 0.0239586029 0.0239537004 0.0239741132 0.0240149777
2781.451267204116 0.0240677875 0.0241235457 0.024175074 0.0242175683 0.0242496263 0.0242731366
2782.1744421058124 0.0242916718 0.0243086312 0.0243265387 0.0243458115 0.0243651923 0.0243829265
2782.8976170075089 0.0243973304 0.0244080201 0.0244162921 0.0244244598 0.0244349036 0.0244492404
2783.6207919092053 0.0244669784 0.0244857669 0.0245014727 0.0245093256 0.0245060306 0.0244897641
2784.3439668109017 0.02446221 0.0244267732 0.0243886728 0.0243531708 0.0243241545 0.0243029539
2785.0671417125982 0.024289079 0.0242800042 0.024272155 0.0242624134 0.0242487155 0.0242303908
2785.7903166142942 0.0242081434 0.0241841469 0.0241618678 0.0241450183 0.0241375566 0.0241427068
2786.5134915159906 0.0241620429 0.0241946559 0.024236802 0.0242825616 0.0243240502 0.0243539773
2787.236666417687 0.0243673995 0.024362633 0.0243421327 0.0243115406 0.0242788829 0.0242512021
2787.9598413193835 0.0242343489 0.0242308807 0.0242402349 0.0242589451 0.024282597 0.0243062489
2788.6830162210799 0.0243266076 0.0243421327 0.0243536625 0.0243635103 0.024374865 0.0243900754
2789.4061911227764 0.0244095623 0.024431048 0.0244503617 0.02446221 0.0244623516 0.0244494509
2790.1293660244728 0.0244257916 0.0243969448 0.0243696775 0.0243497714 0.0243401006 0.0243388023
2790.8525409261688 0.0243408009 0.0243404862 0.024333477 0.0243191086 0.0243009571 0.0242850836
2791.5757158278652 0.0242775157 0.0242813006 0.0242954213 0.0243150089 0.0243341774 0.0243474245
2792.2988907295617 0.024353452 0.0243542232 0.0243548192 0.0243605655 0.0243741982 0.0243951231
2793.0220656312581 0.0244194474 0.0244414937 0.0244563911 0.0244623162 0.0244607031 0.0244560055
2793.7452405329545 0.0244529564 0.0244556554 0.024465505 0.0244808588 0.0244981069 0.0245125853
2794.468415434651 0.0245209653 0.0245212801 0.0245139878 0.0245011579 0.0244861171 0.0244719908
2795.1915903363474 0.0244609844 0.0244537629 0.0244495906 0.0244467165 0.0244432464 0.0244383048
2795.9147652380434 0.024432661 0.0244291555 0.0244315397 0.0244431775 0.0244654007 0.0244966
2796.6379401397398 0.0245310962 0.0245611798 0.024579376 0.0245800074 0.0245616343 0.0245275553
2797.3611150414363 0.0244848914 0.0244424399 0.0244085472 0.0243896209 0.0243886393 0.0244061276
2798.0842899431327 0.0244394615 0.0244846102 0.0245358292 0.0245857239 0.0246268194 0.0246512629
2798.8074648448292 0.0246532969 0.024631273 0.0245881416 0.0245322194 0.024474619 0.0244274028
2799.5306397465256 0.0243995041 0.0243942812 0.0244084764 0.024433678 0.0244592316 0.0244747251
2800.2538146482216 0.0244738478 0.0244555511 0.0244235136 0.0243851691 0.0243489668 0.0243225787
2800.976989549918 0.0243106633 0.0243150089 0.0243342817 0.0243654381 0.0244041309 0.0244462956
2801.7001644516145 0.0244883969 0.0245280471 0.0245636329 0.0245944541 0.0246198066 0.0246391986
2802.4233393533109 0.0246521737 0.0246586613 0.0246591885 0.0246549454 0.0246481765 0.0246409178
2803.1465142550073 0.0246352013 0.024631869 0.0246305726 0.0246301871 0.0246293452 0.0246275906
2803.8696891567038 0.0246253479 0.0246237349 0.0246238392 0.0246264338 0.0246308874 0.0246361829
2804.5928640584002 0.0246417243 0.0246476512 0.0246567689 0.024672199 0.0246972758 0.0247319639
2805.3160389600962 0.0247728638 0.0248125046 0.0248415191 0.0248509571 0.0248362571 0.0247986484
2806.0392138617926 0.0247456096 0.0246872101 0.0246346407 0.0245961379 0.0245747827 0.024568893
2806.7623887634891 0.0245735217 0.0245831292 0.0245924555 0.0245985221 0.0245993286 0.0245939288
2807.4855636651855 0.0245812349 0.0245606527 0.0245327093 0.0245003514 0.0244688708 0.0244457349
2808.2087385668819 0.0244377796 0.0244500469 0.0244831387 0.0245335158 0.0245938227 0.0246548392
2808.9319134685784 0.0247082189 0.0247471519 0.0247676726 0.0247683749 0.0247502048 0.0247164257
2809.6550883702748 0.024672199 0.0246251021 0.0245837588 0.0245560259 0.0245474353 0.0245588645
2810.3782632719708 0.0245859679 0.0246202983 0.0246526655 0.0246764775 0.0246902611 0.0246979073
2811.1014381736672 0.0247071665 0.0247255806 0.0247561317 0.0247955602 0.0248343274 0.0248615537
2811.8246130753637 0.0248681493 0.0248517282 0.024817979 0.0247791093 0.0247489754 0.024737576
2812.5477879770601 0.0247478895 0.0247742683 0.0248056296 0.0248290654 0.0248354506 0.0248227846
2813.2709628787566 0.024796227 0.0247656386 0.0247416105 0.0247316491 0.0247374717 0.0247553959
2813.994137780453 0.0247775652 0.0247965436 0.0248069633 0.0248078741 0.024802262 0.0247955956
2814.717312682149 0.0247933511 0.0247985423 0.0248107873 0.0248264689 0.024840327 0.0248467475
2815.4404875838454 0.0248420108 0.0248257667 0.0247999821 0.0247686896 0.0247359276 0.0247044656
2816.1636624855419 0.0246747602 0.0246456508 0.0246152133 0.0245825332 0.0245488733 0.0245176703
2816.8868373872383 0.0244933739 0.0244796686 0.0244777389 0.0244854167 0.0244975109 0.0245080628
2817.6100122889347 0.0245127268 0.024510622 0.0245050844 0.0245018937 0.0245071519 0.0245245751
2818.3331871906312 0.0245531853 0.0245880373 0.0246219803 0.0246481765 0.0246625897 0.0246654656
2819.0563620923276 0.0246609412 0.0246544536 0.0246507712 0.0246520694 0.0246574692 0.0246642381
2819.7795369940236 0.0246692542 0.0246708319 0.0246699546 0.0246692188 0.0246721637 0.0246813186
2820.50271189572 0.0246972051 0.0247184951 0.0247424878 0.0247657783 0.0247855987 0.0248007532
2821.2258867974165 0.0248110313 0.024817137 0.0248202942 0.024821803 0.0248223636 0.0248221532
2821.9490616991129 0.0248204339 0.0248158388 0.0248062611 0.0247894563 0.0247649364 0.0247337874
2822.6722366008094 0.0246997662 0.024669148 0.0246490538 0.0246460363 0.0246637464 0.0247020815
2823.3954115025058 0.0247568693 0.0248212405 0.024886746 0.0249457322 0.0249929 0.0250250846
2824.1185864042022 0.0250417236 0.0250440035 0.0250345264 0.0250165556 0.0249941293 0.0249716677
2824.8417613058982 0.0249528568 0.0249405745 0.0249354504 0.0249367133 0.0249417331 0.0249472428
2825.5649362075947 0.0249510668 0.0249522962 0.0249510314 0.0249475576 0.0249408558 0.0249285735
2826.2881111092911 0.0249065701 0.0248716231 0.0248227138 0.0247635692 0.0247026421 0.0246511213
2827.0112860109875 0.0246200878 0.0246176682 0.0246452298 0.0246977676 0.0247647967 0.0248345025
2827.734460912684 0.0248957276 0.0249409955 0.0249675605 0.0249767918 0.0249724053 0.0249592792
2828.4576358143804 0.0249433462 0.0249308534 0.0249280464 0.0249410309 0.0249738786 0.0250268411
2829.1808107160764 0.0250946935 0.0251677521 0.0252327137 0.0252761543 0.0252897795 0.0252720453
2829.9039856177728 0.0252297632 0.0251754764 0.0251250248 0.0250924807 0.0250858814 0.0251067691
2830.6271605194693 0.0251497068 0.0252052881 0.0252618603 0.025309097 0.0253394432 0.0253485758
2831.3503354211657 0.0253361426 0.0253046025 0.0252604205 0.0252118893 0.0251686312 0.0251399111
2832.0735103228621 0.0251318701 0.0251459144 0.0251777954 0.0252186321 0.0252569094 0.0252814572
2832.7966852245586 0.0252855662 0.0252679717 0.0252333451 0.025189979 0.0251480564 0.0251164939
2833.519860126255 0.0251003802 0.0251012929 0.0251177922 0.0251466874 0.0251844302 0.0252281483
2834.243035027951 0.0252761897 0.0253272913 0.0253804363 0.0254343618 0.0254869573 0.0255352389
2834.9662099296474 0.0255758632 0.0256049987 0.0256194081 0.0256171245 0.0255982503 0.0255656708
2835.6893848313439 0.0255252942 0.0254848506 0.0254518576 0.0254320074 0.0254274048 0.0254353099
2836.4125597330403 0.0254497156 0.025462715 0.0254680198 0.0254626442 0.0254480988 0.02542983
2837.1357346347368 0.0254153199 0.0254109986 0.0254207309 0.0254442692 0.0254784543 0.0255178791
2837.8589095364332 0.025557518 0.0255936459 0.0256245751 0.0256500226 0.0256706923 0.0256875642
2838.5820844381296 0.0257018022 0.0257145632 0.0257277824 0.0257435665 0.0257639587 0.0257899072
2839.3052593398256 0.0258206744 0.0258539747 0.0258862246 0.0259141847 0.0259359572 0.0259519257
2840.0284342415221 0.0259642359 0.0259762313 0.0259907953 0.0260092281 0.0260313209 0.0260553509
2840.7516091432185 0.0260790996 0.0261009838 0.0261201616 0.0261364542 0.026149651 0.0261596441
2841.4747840449149 0.0261658374 0.0261690766 0.0261714328 0.026177451 0.026193358 0.0262257736
2842.1979589466114 0.0262789242 0.0263534151 0.0264453143 0.0265469197 0.0266483035 0.0267411098
2842.9211338483078 0.0268195942 0.0268822275 0.0269307699 0.026968915 0.027000647 0.0270281509
2843.6443087500038 0.0270530116 0.027075721 0.0270973761 0.0271199122 0.0271459408 0.0271777567
2844.3674836517002 0.0272166654 0.0272615049 0.0273100529 0.0273590665 0.0274067093 0.0274526626
2845.0906585533967 0.027499361 0.0275505837 0.0276107471 0.0276830308 0.0277687479 0.0278676245
2845.8138334550931 0.0279771965 0.028094219 0.0282139257 0.0283303037 0.0284368079 0.0285257883
2846.5370083567896 0.0285905097 0.0286271386 0.0286363047 0.0286243781 0.0286017992 0.0285818744
2847.260183258486 0.0285762493 0.0285915006 0.0286281649 0.0286809374 0.0287413988 0.0288017616
2847.9833581601824 0.0288585909 0.0289139058 0.0289741512 0.0290460959 0.029133996 0.0292354878
2848.7065330618784 0.0293424986 0.0294419825 0.0295215938 0.0295743681 0.0296005458 0.029608598
2849.4297079635749 0.0296112578 0.0296219699 0.0296487529 0.0296913255 0.0297409277 0.0297842529
2850.1528828652713 0.0298074614 0.0298013221 0.0297649857 0.0297063328 0.0296394937 0.0295788012
2850.8760577669677 0.0295362417 0.0295160972 0.0295149628 0.029522622 0.0295263808 0.0295158494
2851.5992326686642 0.0294857044 0.0294377636 0.0293797236 0.0293228589 0.0292776655 0.0292501971
2852.3224075703606 0.0292404853 0.0292425063 0.0292460844 0.0292396694 0.0292144362 0.0291669145
2853.0455824720566 0.0290989894 0.0290180389 0.0289345179 0.0288590509 0.0287997779 0.0287607629
2853.768757373753 0.028741328 0.0287365485 0.0287383534 0.0287376102 0.0287262462 0.028697893
2854.4919322754495 0.0286496487 0.02858283 0.0285027549 0.0284181312 0.0283396766 0.0282785296
2855.2151071771459 0.0282434151 0.0282386411 0.0282623321 0.028307315 0.0283613931 0.0284099244
2855.9382820788423 0.0284402408 0.0284428932 0.0284148399 0.0283590239 0.0282841157 0.028201621
2856.6614569805388 0.028123064 0.0280584134 0.0280138087 0.027990872 0.027987197 0.0279973764
2857.3846318822352 0.0280143749 0.028030172 0.0280383024 0.0280335657 0.0280130673 0.027976172
2858.1078067839312 0.0279239789 0.0278588627 0.0277838651 0.0277023483 0.0276184436 0.0275368504
2858.8309816856276 0.0274632517 0.0274042729 0.0273658782 0.0273527149 0.0273660533 0.0274025444
2859.5541565873241 0.0274543557 0.0275105517 0.0275595877 0.0275915749 0.0276016369 0.0275905151
2860.2773314890205 0.0275646355 0.0275327917 0.027504798 0.0274880305 0.0274855942 0.0274957251
2861.000506390717 0.0275128465 0.0275291558 0.0275363922 0.0275273193 0.0274976306 0.0274459906
2861.7236812924134 0.0273749474 0.0272899065 0.0271995924 0.0271142684 0.0270435251 0.0269960295
2862.4468561941098 0.0269769542 0.026987249 0.0270235669 0.0270796008 0.027147105 0.0272171237
2863.1700310958058 0.0272818971 0.0273351073 0.0273720175 0.0273899809 0.0273881461 0.0273681358
2863.8932059975023 0.0273334477 0.0272903647 0.027246194 0.0272077397 0.0271802619 0.027165411
2864.6163808991987 0.0271608606 0.0271608606 0.0271578282 0.0271451306 0.0271182898 0.0270770621
2865.3395558008951 0.0270252954 0.0269703604 0.0269211102 0.0268863868 0.0268733446 0.0268856827
2866.0627307025916 0.0269226618 0.0269789994 0.0270460285 0.027112117 0.0271653756 0.027197158
2866.785905604288 0.0272038598 0.0271884445 0.0271599796 0.0271316208 0.0271165967 0.0271233674
2867.509080505984 0.0271538068 0.0272014607 0.0272545908 0.0272983033 0.0273201801 0.0273138639
2868.2322554076804 0.027280204 0.0272266138 0.0271643177 0.0271058399 0.0270603467 0.0270332284
2868.9554303093769 0.0270260349 0.0270371437 0.0270633791 0.0271011498 0.0271473173 0.0271986742
2869.6786052110733 0.0272524375 0.0273051132 0.027354056 0.0273970738 0.0274326503 0.027460428
2870.4017801127698 0.0274801943 0.0274915602 0.0274940655 0.0274865832 0.0274691097 0.0274431314
2871.1249550144662 0.0274118613 0.0273804516 0.0273542684 0.0273375772 0.0273311194 0.0273321774
2871.8481299161626 0.0273355301 0.0273346826 0.0273248386 0.0273051839 0.0272795688 0.0272553302
2872.5713048178586 0.0272410419 0.0272429828 0.0272635166 0.027298728 0.0273398701 0.0273762178
2873.2944797195551 0.0273981337 0.0274001099 0.027382357 0.0273506679 0.0273141116 0.0272812266
2874.0176546212515 0.0272569545 0.0272408668 0.0272276364 0.0272080936 0.0271735601 0.0271190293
2874.7408295229479 0.0270456411 0.0269607715 0.0268756002 0.0268030632 0.0267530214 0.0267300811
2875.4640044246444 0.0267324764 0.0267538317 0.0267856196 0.0268197693 0.0268508922 0.0268776454
2876.1871793263408 0.0269007348 0.0269216746 0.0269405693 0.0269552711 0.0269619692 0.0269558001
2876.9103542280372 0.0269333068 0.026893191 0.0268374272 0.0267704651 0.0266980864 0.0266269185
2877.6335291297332 0.0265635103 0.0265134592 0.0264818687 0.0264728181 0.0264878906 0.026525788
2878.3567040314297 0.0265809819 0.0266446732 0.0267049577 0.0267512947 0.0267759282 0.0267763846
2879.0798789331261 0.0267561581 0.0267231744 0.0266870577 0.0266550668 0.0266309697 0.0266139545
2879.8030538348225 0.0266004615 0.0265865829 0.0265710484 0.0265560783 0.0265475549 0.0265524499
2880.526228736519 0.0265754517 0.0266175475 0.0266746208 0.026738856 0.0268004201 0.0268514901
2881.2494036382154 0.0268874094 0.0269078556 0.0269153994 0.0269140601 0.0269070435 0.0268956237
2881.9725785399114 0.0268789139 0.0268555097 0.0268243514 0.0267872754 0.0267491098 0.0267163385
2882.6957534416078 0.0266962536 0.0266947392 0.0267136954 0.0267505888 0.0267987996 0.0268495176
2883.4189283433043 0.0268932618 0.0269229077 0.0269350708 0.0269307345 0.0269140955 0.0268915333
2884.1421032450007 0.026869785 0.0268539581 0.0268471204 0.0268501509 0.0268620998 0.0268803947
2884.8652781466972 0.0269012991 0.0269207936 0.0269333068 0.0269334838 0.0269176904 0.0268841665
2885.5884530483936 0.0268353131 0.0267779715 0.0267227516 0.0266816318 0.0266642626 0.0266759954
2886.31162795009 0.0267149284 0.0267728958 0.0268361941 0.0268903002 0.0269231908 0.0269277729
2887.034802851786 0.0269040484 0.0268577654 0.0267994683 0.0267398413 0.0266891364 0.0266542919
2887.7579777534825 0.0266383328 0.0266411155 0.0266595408 0.0266896654 0.0267268736 0.0267673992
2888.4811526551789 0.0268082097 0.0268473327 0.026883496 0.0269154347 0.0269419458 0.0269617941
2889.2043275568753 0.0269741341 0.0269793514 0.0269794576 0.0269783996 0.0269813612 0.0269928202
2889.9275024585718 0.0270155985 0.0270493794 0.0270908158 0.0271345489 0.0271748286 0.0272083394
2890.6506773602682 0.0272338111 0.0272530727 0.0272686314 0.0272824261 0.0272942465 0.027301373
2891.3738522619647 0.027300315 0.027288178 0.0272643976 0.027231941 0.0271955002 0.0271608252
2892.0970271636606 0.0271325037 0.0271132458 0.0271042883 0.027106192 0.0271202996 0.027147986
2892.8202020653571 0.0271905959 0.0272467937 0.0273112878 0.0273742415 0.0274242498 0.027450297
2893.5433769670535 0.0274464842 0.027413873 0.0273614302 0.027302539 0.0272509921 0.0272179712
2894.26655186875 0.0272089038 0.0272236504 0.0272584707 0.0273095239 0.0273740645 0.0274514612
2894.9897267704464 0.0275415815 0.027642455 0.0277488269 0.0278524328 0.0279423892 0.0280087907
2895.7129016721428 0.028045442 0.0280508846 0.0280285124 0.027984865 0.0279281847 0.0278661065
2896.4360765738388 0.0278047062 0.0277495682 0.0277052782 0.0276761092 0.0276652668 0.0276745185
2897.1592514755353 0.0277022421 0.0277438462 0.0277922731 0.0278392918 0.0278782248 0.0279048644
2897.8824263772317 0.0279193502 0.0279256757 0.0279290676 0.0279358514 0.0279499516 0.0279723201
2898.6056012789281 0.0279995315 0.0280252602 0.0280414466 0.0280402806 0.0280171316 0.0279720016
2899.3287761806246 0.0279106591 0.0278435312 0.0277830176 0.0277411975 0.0277253035 0.0277364645
2900.051951082321 0.02776956 0.027815517 0.0278640911 0.0279079378 0.0279446151 0.027976349
2900.7751259840174 0.028009003 0.0280479509 0.0280966926 0.0281547047 0.0282180272 0.0282816403
2901.4983008857134 0.0283414442 0.0283957385 0.0284452289 0.0284912568 0.0285344925 0.028572144
2902.2214757874099 0.0285991449 0.0286089126 0.0285964198 0.0285609253 0.0285073891 0.0284465365
2902.9446506891063 0.0283910688 0.0283540003 0.0283441674 0.0283636916 0.0284083318 0.0284686834
2903.6678255908027 0.0285337847 0.02859281 0.0286386404 0.0286684781 0.0286834855 0.0286880881
2904.3910004924992 0.0286876634 0.0286885481 0.0286961943 0.0287152734 0.0287497174 0.0288014784
2905.1141753941956 0.0288700294 0.0289513767 0.0290391166 0.0291236136 0.0291949809 0.0292462986
2905.8373502958921 0.029274866 0.0292842221 0.0292824153 0.0292803589 0.0292873774 0.029308185
2906.560525197588 0.0293420032 0.0293830913 0.029424645 0.0294609535 0.0294913426 0.0295196436
2907.2837000992845 0.029553052 0.0295982044 0.029658651 0.0297328737 0.0298160147 0.0299018342
2908.0068750009809 0.0299861096 0.0300684478 0.0301523656 0.0302420165 0.0303395055 0.0304425228
2908.7300499026774 0.030543752 0.0306340549 0.0307047442 0.0307522938 0.0307787191 0.0307917371
2909.4532248043738 0.0308010206 0.0308143944 0.0308367331 0.0308672562 0.0309031866 0.0309400484
2910.1763997060702 0.0309745613 0.0310045965 0.0310281534 0.0310431719 0.031046126 0.0310338121
2910.8995746077662 0.0310060196 0.0309671611 0.0309278797 0.0309020486 0.0309047177 0.0309458468
2911.6227495094627 0.0310273711 0.0311417654 0.0312748477 0.0314107165 0.0315352231 0.0316416956
2912.3459244111591 0.0317302644 0.0318065546 0.0318777226 0.0319493636 0.0320237651 0.0320995338
2913.0690993128555 0.0321734957 0.0322422236 0.0323033594 0.0323558301 0.0323991701 0.0324328355
2913.792274214552 0.0324573293 0.0324741453 0.0324872881 0.0325040333 0.0325333886 0.0325837098
2914.5154491162484 0.0326599665 0.0327619314 0.0328835361 0.0330139026 0.0331417322 0.0332576483
2915.2386240179449 0.0333563536 0.0334370434 0.0335022137 0.0335553326 0.033599183 0.0336361304
2915.9617989196408 0.0336682796 0.0336993597 0.0337349921 0.0337824412 0.0338471644 0.0339305587
2916.6849738213373 0.0340278037 0.0341277234 0.0342142172 0.0342716202 0.0342896543 0.0342662409
2917.4081487230337 0.0342091992 0.0341333114 0.0340572968 0.0339969881 0.0339620896 0.0339538455
2918.1313236247302 0.0339664593 0.0339897834 0.0340126827 0.0340274088 0.0340302773 0.0340218209
2918.8544985264266 0.0340045132 0.0339811854 0.0339535251 0.0339209922 0.0338830203 0.0338394605
2919.577673428123 0.0337928273 0.0337485969 0.033713147 0.0336922705 0.0336888321 0.0337007195
2920.3008483298195 0.0337212756 0.0337403975 0.033748813 0.0337410048 0.0337175876 0.0336853974
2921.0240232315155 0.0336556435 0.0336405672 0.0336477309 0.0336778052 0.033723101 0.0337701924
2921.7471981332119 0.033802893 0.0338079408 0.0337798633 0.0337220989 0.0336462259 0.0335675739
2922.4703730349083 0.0335012823 0.0334562585 0.0334332846 0.0334250554 0.0334201157 0.0334070921
2923.1935479366048 0.0333789662 0.0333361365 0.0332859792 0.0332399793 0.0332087539 0.0331986658
2923.9167228383012 0.0332095772 0.0332347564 0.0332629085 0.0332820825 0.0332831182 0.0332610123
2924.6398977399977 0.0332155488 0.0331499912 0.0330701768 0.0329824798 0.0328932963 0.0328091308
2925.3630726416936 0.0327362753 0.0326799378 0.032643538 0.0326273553 0.0326276049 0.0326367505
2926.0862475433901 0.0326458216 0.0326458924 0.0326310694 0.0325999968 0.0325559601 0.0325055346
2926.8094224450865 0.0324560069 0.0324133784 0.0323807858 0.0323581174 0.0323426612 0.0323300585
2927.5325973467829 0.0323165655 0.0322986841 0.032274235 0.0322422944 0.0322027914 0.0321557969
2928.2557722484794 0.0321019925 0.0320412777 0.0319740064 0.0319000073 0.0318198539 0.0317358635
2928.9789471501758 0.0316522457 0.0315762348 0.0315156616 0.031478148 0.0314683504 0.0314852372
2929.7021220518723 0.0315215401 0.0315646157 0.0316012837 0.0316198505 0.0316149667 0.0315888487
2930.4252969535682 0.0315493681 0.0315073952 0.0314711668 0.0314439498 0.0314227194 0.0314002074
2931.1484718552647 0.0313687585 0.031324666 0.0312702544 0.0312147457 0.0311701726 0.0311483517
2931.8716467569611 0.0311563257 0.0311942399 0.0312547311 0.0313257352 0.0313940793 0.0314479023
2932.5948216586576 0.0314793587 0.031485308 0.0314669609 0.0314280987 0.0313734598 0.0313075744
2933.317996560354 0.031233687 0.0311537627 0.0310683697 0.0309778713 0.0308833718 0.0307881795
2934.0411714620504 0.0306976326 0.0306194425 0.0305624157 0.0305327326 0.0305328388 0.0305590034
2934.7643463637469 0.0306021981 0.030648455 0.0306834448 0.0306969564 0.0306843333 0.0306488816
2935.4875212654429 0.0306005273 0.0305530317 0.0305197574 0.0305100195 0.0305270106 0.030567145
2936.2106961671393 0.0306214318 0.0306766871 0.0307200719 0.0307401661 0.0307290349 0.0306839775
2936.9338710688357 0.0306069274 0.0305045452 0.0303856991 0.0302615911 0.0301428121 0.0300373789
2937.6570459705322 0.029950574 0.0298843011 0.0298371669 0.0298053678 0.0297835786 0.0297665112
2938.3802208722286 0.0297483783 0.0297242869 0.0296905097 0.0296447799 0.0295869596 0.0295198206
2939.1033957739251 0.0294488966 0.0293815657 0.0293255541 0.0292867385 0.029266607 0.0292618927
2939.826570675621 0.0292635579 0.0292606521 0.0292421859 0.0292016082 0.0291395951 0.0290650129
2940.5497455773175 0.0289925709 0.0289380606 0.0289152171 0.0289295595 0.0289773755 0.0290456712
2941.2729204790139 0.0291172005 0.0291754548 0.0292081628 0.0292113535 0.0291880704 0.0291460436
2941.9960953807104 0.0290931091 0.0290339086 0.0289689098 0.0288955625 0.0288109314 0.0287157334
2942.7192702824068 0.0286152121 0.0285197031 0.0284420084 0.0283926614 0.0283785127 0.0283995941
2943.4424451841032 0.0284508169 0.0285222158 0.0286033209 0.028684264 0.0287567619 0.0288150031
2944.1656200857997 0.0288545191 0.0288725793 0.0288686119 0.0288438257 0.0288019385 0.0287480894
2944.8887949874957 0.0286881942 0.0286272448 0.0285683572 0.0285132639 0.0284628458 0.0284182373
2945.6119698891921 0.028380705 0.0283523034 0.0283329561 0.0283204019 0.0283093676 0.02829271
2946.3351447908885 0.0282634646 0.0282184146 0.0281589814 0.0280914623 0.0280235633 0.0279618241
2947.058319692585 0.0279083271 0.0278599225 0.0278101116 0.0277527124 0.0276857149 0.0276135001
2947.7814945942814 0.0275462065 0.0274956897 0.0274724644 0.0274806879 0.0275176466 0.0275739562
2948.5046694959779 0.0276376531 0.0276978277 0.0277459659 0.02777832 0.0277942866 0.0277953465
2949.2278443976743 0.0277834777 0.0277614016 0.0277323332 0.0276995581 0.0276665036 0.0276354291
2949.9510192993703 0.0276060514 0.027575545 0.0275393929 0.0274939612 0.027438296 0.02737597
2950.6741942010667 0.0273137931 0.0272595994 0.0272189584 0.0271923598 0.0271747224 0.0271576159
2951.3973691027632 0.0271327496 0.0270954706 0.0270468052 0.0269934554 0.0269451179 0.0269108508
2952.1205440044596 0.0268960465 0.026901545 0.0269240364 0.0269571748 0.0269931369 0.0270245187
2952.843718906156 0.027043948 0.0270449016 0.0270233564 0.0269783288 0.026914306 0.026841199
2953.5668938078525 0.0267731436 0.0267246906 0.0267056972 0.0267185941 0.0267565455 0.0268063061
2954.2900687095484 0.0268525481 0.0268839188 0.0268967506 0.0268951654 0.026887374 0.0268812049
2955.0132436112449 0.0268788785 0.0268761292 0.026863087 0.0268296376 0.026771592 0.0266922377
2955.7364185129413 0.0266035963 0.0265206099 0.0264575351 0.0264212638 0.0264103133 0.0264159814
2956.4595934146378 0.0264269337 0.0264343992 0.0264349263 0.0264310539 0.0264292918 0.0264363009
2957.1827683163342 0.0264551044 0.0264841579 0.0265182499 0.0265512876 0.026578974 0.0266006384
2957.9059432180306 0.0266192034 0.0266394243 0.0266654249 0.0266985092 0.026736917 0.02677642
2958.6291181197271 0.0268129315 0.0268430319 0.0268652383 0.0268796906 0.0268862806 0.0268831439
2959.3522930214231 0.026866436 0.0268300958 0.0267683864 0.0266782138 0.0265610088 0.0264230948
2960.0754679231195 0.0262753684 0.0261306129 0.0259996243 0.0258891787 0.0258005969 0.0257298909
2960.7986428248159 0.02567048 0.025615789 0.0255622268 0.0255106762 0.0254656654 0.0254339054
2961.5218177265124 0.0254221708 0.0254339054 0.0254686866 0.0255218502 0.0255865119 0.0256547686
2962.2449926282088 0.0257200822 0.0257784445 0.0258284807 0.0258713122 0.0259095766 0.025946578
2962.9681675299053 0.0259860102 0.0260301959 0.026080858 0.0261372626 0.0261962805 0.0262511168
2963.6913424316017 0.0262928978 0.0263117328 0.026298495 0.0262478776 0.0261608064 0.0260455348
2964.4145173332977 0.025916541 0.0257919114 0.0256902371 0.0256249979 0.0256016236 0.0256159995
2965.1376922349941 0.0256556831 0.0257035252 0.0257415622 0.0257575959 0.0257466603 0.0257124547
2965.8608671366906 0.0256646816 0.0256155077 0.0255751256 0.0255484525 0.0255345702 0.0255283862
2966.584042038387 0.0255238879 0.0255163684 0.0255047027 0.0254908223 0.02547835 0.0254699513
2967.3072169400834 0.0254661571 0.0254655257 0.0254654549 0.0254644006 0.0254628193 0.025462715
2968.0303918417799 0.0254660174 0.0254720952 0.0254773311 0.0254742745 0.0254550893 0.025414722
2968.7535667434759 0.0253535993 0.0252787881 0.0252013896 0.0251339078 0.0250851437 0.0250577293
2969.4767416451723 0.0250477605 0.0250477958 0.0250504632 0.025051903 0.0250530597 0.0250594486
2970.1999165468687 0.0250773523 0.0251103509 0.0251566228 0.0252086241 0.0252553988 0.0252852142
2970.9230914485652 0.0252891127 0.0252634399 0.0252106953 0.0251385421 0.0250574127 0.0249794591
2971.6462663502616 0.0249152388 0.0248721484 0.024853589 0.0248572733 0.0248760097 0.0248985011
2972.3694412519581 0.024912782 0.0249086414 0.0248811673 0.0248319414 0.0247686896 0.0247033089
2973.0926161536545 0.0246467739 0.0246066563 0.024584882 0.0245779734 0.0245795511 0.024582848
2973.8157910553505 0.0245845653 0.0245848112 0.0245865993 0.0245934017 0.0246070772 0.0246266089
2974.5389659570469 0.0246475805 0.0246643778 0.0246719532 0.0246673953 0.0246511567 0.0246260129
2975.2621408587434 0.0245965235 0.0245673843 0.0245423503 0.0245236643 0.0245119892 0.024506662
2975.9853157604398 0.024505889 0.0245072581 0.0245086253 0.0245084837 0.0245066267 0.0245041717
2976.7084906621362 0.0245027691 0.0245044176 0.0245095361 0.0245173182 0.024525838 0.0245336909
2977.4316655638327 0.0245416146 0.024553325 0.0245749578 0.0246134941 0.0246725157 0.0247499943
2978.1548404655291 0.0248362925 0.024916783 0.0249740891 0.0249938834 0.0249704048 0.0249076579
2978.8780153672251 0.0248192064 0.0247228444 0.0246368852 0.0245734155 0.0245360751 0.0245198086
2979.6011902689215 0.024514515 0.024510026 0.0244994052 0.0244817715 0.0244624205 0.0244494155
2980.324365170618 0.0244500823 0.024467539 0.0244982466 0.0245339368 0.0245626867 0.0245731361
2981.0475400723144 0.0245586187 0.0245192479 0.02446221 0.0243997481 0.0243468992 0.0243166555
2981.7707149740108 0.0243165158 0.0243471786 0.0244019218 0.0244696774 0.0245365314 0.024590807
2982.4938898757073 0.0246250313 0.0246376563 0.0246322546 0.02461637 0.0245988015 0.0245869495
2983.2170647774033 0.0245851614 0.024594279 0.0246116705 0.0246325359 0.0246515423 0.0246645883
2983.9402396790997 0.0246685874 0.0246623792 0.0246453714 0.0246170722 0.0245762914 0.0245212447
2984.6634145807961 0.0244501177 0.024362985 0.0242626593 0.0241561923 0.0240532886 0.0239648707
2985.3865894824926 0.0239007287 0.0238656178 0.023858266 0.0238716025 0.0238948483 0.0239169747
2986.109764384189 0.0239299983 0.0239313636 0.0239235908 0.0239121076 0.0239020251 0.0238958281
2986.8329392858855 0.0238916967 0.0238851514 0.0238714274 0.0238485355 0.0238194466 0.0237915516
2987.5561141875819 0.023774961 0.023777727 0.0238044672 0.023853261 0.0239177085 0.0239881892
2988.2792890892779 0.0240558796 0.0241142996 0.0241600815 0.0241925549 0.0242111217 0.02421459
2989.0024639909743 0.0242008921 0.0241679978 0.0241159461 0.0240477901 0.0239706114 0.0238929223
2989.7256388926708 0.0238229819 0.0237663519 0.0237251967 0.0236986019 0.0236853044 0.0236857943
2990.4488137943672 0.0237031858 0.0237425901 0.0238074418 0.0238963533 0.0239999201 0.024101831
2991.1719886960636 0.0241816938 0.0242206156 0.0242081434 0.0241459291 0.0240488406 0.0239390302
2991.8951635977601 0.0238418132 0.0237764325 0.0237502884 0.0237588268 0.0237874556 0.0238189567
2992.6183384994565 0.0238388032 0.0238410439 0.0238295626 0.0238148961 0.0238088761 0.0238184668
2993.3415134011525 0.0238421299 0.0238697138 0.0238860603 0.0238759797 0.023831768 0.0237554684
2994.0646883028489 0.023660602 0.0235661417 0.0234926157 0.0234552287 0.0234583057 0.0234953091
2994.7878632045454 0.0235509593 0.0236079805 0.02365035 0.0236698035 0.0236667953 0.0236487407
2995.5110381062418 0.023626348 0.0236085765 0.02360004 0.023599375 0.0236006342 0.023596121
2996.2342130079383 0.0235804487 0.0235524625 0.0235159807 0.0234778561 0.0234461352 0.0234273206
2996.9573879096347 0.023424698 0.0234380923 0.0234651603 0.0235027932 0.0235472154 0.0235946868
2997.6805628113307 0.0236407276 0.0236786921 0.0237005968 0.023699021 0.0236687195 0.0236101151
2998.4037377130271 0.0235301461 0.0234428477 0.0233651474 0.0233129133 0.0232968312 0.0233184714
2999.1269126147236 0.0233700071 0.0234360639 0.0234999247 0.0235464461 0.0235668048 0.0235602632
2999.85008751642 0.0235334001 0.0234963931 0.0234593209 0.0234299079 0.0234113745 0.0234024916
3000.5732624181164 0.0233994499 0.0233985055 0.0233972464 0.0233964082 0.0233989265 0.0234088916
3001.2964373198129 0.0234298743 0.0234627817 0.0235050675 0.0235506799 0.0235921331 0.0236217994
3002.0196122215093 0.0236347448 0.0236299876 0.0236108843 0.0235843658 0.0235574301 0.0235359184
3002.7427871232053 0.0235226266 0.0235165395 0.0235144403 0.0235129017 0.0235110838 0.0235110484
3003.4659620249017 0.0235177632 0.0235369671 0.0235724021 0.0236233752 0.0236842204 0.0237444788
3004.1891369265982 0.0237927753 0.0238189213 0.0238167159 0.0237858463 0.0237306915 0.0236591324
3004.9123118282946 0.0235800631 0.0235018134 0.0234307125 0.0233715456 0.0233275965 0.023301376
3005.635486729991 0.0232947338 0.023308333 0.0233413726 0.0233910233 0.0234521851 0.0235183239
3006.3586616316875 0.0235822685 0.0236367397 0.023676347 0.0236973427 0.0236983914 0.0236804411
3007.0818365333839 0.0236462206 0.0236006342 0.0235486496 0.0234953444 0.0234449469 0.0234001838
3007.8050114350799 0.0233623497 0.0233319663 0.0233093463 0.0232956763 0.0232929494 0.0233035088
3008.5281863367763 0.0233290642 0.0233692732 0.0234212708 0.0234783106 0.0235321745 0.0235743262
3009.2513612384728 0.0235971361 0.0235972404 0.0235755164 0.0235372111 0.0234902371 0.023443548
3009.9745361401692 0.0234042406 0.023376476 0.0233593788 0.0233480502 0.0233352538 0.0233123172
3010.6977110418657 0.0232728478 0.0232145768 0.0231401678 0.0230579097 0.0229793359 0.0229179952
3011.4208859435621 0.0228851978 0.0228885841 0.0229298007 0.0230050832 0.0231058858 0.0232204143
3012.1440608452581 0.023337001 0.0234440025 0.0235317554 0.0235934965 0.0236247387 0.0236235838
3012.8672357469545 0.0235911533 0.0235319659 0.0234537236 0.0233659521 0.0232802946 0.0232069921
3013.590410648651 0.0231533777 0.0231227297 0.0231136791 0.0231212266 0.0231385604 0.0231599137
3014.3135855503474 0.0231818277 0.0232041273 0.0232293289 0.0232609287 0.0233013406 0.0233500432
3015.0367604520438 0.0234030169 0.0234529208 0.0234916005 0.0235113278 0.0235076547 0.0234804433
3015.7599353537403 0.0234345943 0.0233792737 0.0233248342 0.023282323 0.0232597403 0.0232605431
3016.4831102554367 0.0232834052 0.0233224221 0.0233682953 0.0234110951 0.0234422181 0.0234569777
3017.2062851571327 0.023455089 0.0234398749 0.0234174933 0.0233939961 0.0233733989 0.0233567562
3017.9294600588291 0.0233420357 0.0233256035 0.0233042426 0.023276519 0.0232441835 0.0232115723
3018.6526349605256 0.0231845528 0.0231682658 0.0231660996 0.0231788214 0.0232044067 0.0232390109
3019.375809862222 0.0232777782 0.0233157799 0.0233478043 0.0233696587 0.0233780146 0.0233710576
3020.0989847639185 0.0233490635 0.0233145207 0.0232717656 0.0232252739 0.0231788922 0.0231338777
3020.8221596656149 0.0230894983 0.0230442137 0.0229977816 0.0229534153 0.0229180995 0.0229008794
3021.5453345673109 0.0229097866 0.022947615 0.0230098683 0.0230842903 0.023153659 0.0232017152
3022.2685094690073 0.0232187714 0.0232043006 0.0231677424 0.0231247209 0.0230920482 0.0230805166
3022.9916843707038 0.023093516 0.0231255945 0.0231666584 0.0232051052 0.0232327189 0.0232467707
3023.7148592724002 0.0232493225 0.0232456867 0.0232410375 0.0232392903 0.0232413169 0.0232456867
3024.4380341740966 0.0232494622 0.0232486576 0.0232391153 0.0232163258 0.0231777728 0.0231224503
3025.1612090757931 0.0230533332 0.0229771342 0.0229036044 0.0228440203 0.0228069331 0.02279705
3025.8843839774895 0.0228128694 0.0228490494 0.0228981897 0.0229548812 0.0230172761 0.0230870862
3026.6075588791855 0.0231676735 0.0232600197 0.0233611614 0.023462642 0.0235527437 0.023619527
3027.3307337808819 0.0236554928 0.0236585718 0.0236332063 0.0235865004 0.0235266834 0.0234592147
3028.0539086825784 0.0233860929 0.0233067591 0.0232212879 0.0231317468 0.0230443534 0.0229688901
3028.7770835842748 0.0229157601 0.0228945222 0.0229103453 0.0229626726 0.0230451208 0.0231467038
3029.5002584859712 0.0232536569 0.0233508814 0.0234259218 0.0234699175 0.0234795697 0.0234580263
3030.2234333876677 0.0234133676 0.0233575944 0.0233015846 0.0232533067 0.0232153106 0.0231840648
3030.9466082893641 0.0231525041 0.0231128745 0.0230609849 0.0229976755 0.0229298007 0.0228675585
3031.6697831910601 0.0228217747 0.022800507 0.0228061639 0.0228353944 0.0228804126 0.0229320023
3032.3929580927565 0.0229811519 0.0230220966 0.0230531581 0.0230762884 0.0230962764 0.0231188852
3033.116132994453 0.0231494289 0.0231907405 0.0232425407 0.0233009551 0.023359973 0.023411829
3033.8393078961494 0.0234492123 0.0234670844 0.0234630965 0.023437392 0.0233922116 0.023331197
3034.5624827978459 0.023258796 0.0231806394 0.023103755 0.0230360366 0.0229855888 0.0229595974
3035.2856576995423 0.0229609944 0.0229878947 0.0230325777 0.0230840463 0.0231301729 0.023160927
3036.0088326012383 0.0231714472 0.0231615212 0.023135066 0.0230974648 0.0230542403 0.0230101477
3036.7320075029347 0.0229694843 0.0229372419 0.022919951 0.0229236539 0.0229530297 0.0230078772
3037.4551824046312 0.0230819155 0.0231628492 0.0232363883 0.0232894532 0.0233141705 0.0233106054
3038.1783573063276 0.0232851189 0.0232478194 0.0232082158 0.0231723916 0.0231424402 0.0231172424
3038.901532208024 0.0230950527 0.0230758004 0.0230611935 0.0230540317 0.0230555683 0.0230643041
3039.6247071097205 0.0230754148 0.0230835564 0.0230845697 0.0230792947 0.0230733193 0.0230758004
3040.3478820114169 0.0230962411 0.0231394693 0.023203427 0.0232780576 0.0233490635 0.0234005693
3041.0710569131129 0.0234199762 0.0234024916 0.0233507771 0.0232749116 0.0231881179 0.023104243
3041.7942318148093 0.0230338015 0.0229810812 0.0229457635 0.0229231995 0.0229078643 0.0228953268
3042.5174067165058 0.0228852667 0.0228809714 0.0228884108 0.0229127202 0.0229556859 0.0230129082
3043.2405816182022 0.0230748206 0.0231284965 0.0231616255 0.0231672525 0.0231469478 0.0231100451
3043.9637565198987 0.0230704192 0.0230428502 0.0230369102 0.023053892 0.023086492 0.0231212266
3044.6869314215951 0.0231439434 0.023142755 0.0231131203 0.0230585039 0.0229900945 0.0229233392
3045.4101063232915 0.0228742994 0.0228582695 0.0228835903 0.0229516327 0.0230554994 0.0231815819
3046.1332812249875 0.0233121086 0.0234286152 0.0235186741 0.0235766359 0.0236061271 0.0236170068
3046.856456126684 0.0236213803 0.0236284826 0.0236402377 0.0236509796 0.02364951 0.0236252639
3047.5796310283804 0.0235722624 0.0234929305 0.0233980864 0.0233044513 0.0232282095 0.0231805686
3048.3028059300768 0.0231656451 0.023179695 0.0232130736 0.0232535526 0.023289768 0.0233127717
3049.0259808317733 0.0233165827 0.0232991036 0.0232619774 0.0232106633 0.0231540781 0.0231042784
3049.7491557334697 0.0230737384 0.0230719205 0.0231032651 0.0231647715 0.0232480299 0.0233395193
3050.4723306351657 0.0234258529 0.0234963223 0.023543613 0.0235646367 0.0235588998 0.0235274173
3051.1955055368621 0.0234724693 0.0233982615 0.0233119689 0.0232226159 0.0231405534 0.0230738427
3051.9186804385586 0.0230253115 0.022991877 0.0229648724 0.0229350403 0.0228956752 0.022847617
3052.641855340255 0.0227983426 0.0227605253 0.0227457918 0.0227604564 0.0228024628 0.0228621103
3053.3650302419514 0.0229260288 0.0229818504 0.0230227616 0.0230480563 0.0230613686 0.0230674129
3054.0882051436479 0.0230679736 0.0230611935 0.023043165 0.0230109524 0.0229663756 0.0229169466
3054.8113800453443 0.022874685 0.0228518788 0.0228559989 0.0228871536 0.0229370669 0.0229929257
3055.5345549470403 0.0230412427 0.0230737384 0.0230900217 0.0230981987 0.0231113024 0.0231429283
3056.2577298487367 0.023202274 0.0232910626 0.0234019328 0.0235202815 0.0236292165 0.0237121787
3056.9809047504332 0.0237577073 0.0237615928 0.0237279255 0.0236671455 0.0235920977 0.0235164706
3057.7040796521296 0.0234502628 0.0233981572 0.0233595539 0.023330044 0.0233043469 0.0232778825
3058.4272545538261 0.0232490432 0.0232191905 0.023191439 0.0231692456 0.0231550559 0.0231496394
3059.1504294555225 0.0231523644 0.0231620464 0.0231773891 0.0231976602 0.0232216027 0.02324754
3059.8736043572189 0.0232726745 0.0232935436 0.0233070031 0.0233122837 0.0233111996 0.0233089626
3060.5967792589149 0.0233117584 0.023325989 0.0233545881 0.0233960226 0.0234436877 0.0234876834
3061.3199541606114 0.0235171691 0.0235225912 0.0234996807 0.0234494582 0.0233789943 0.0232988577
3062.0431290623078 0.0232210793 0.0231572576 0.0231142733 0.0230947733 0.0230961367 0.0231122468
3062.7663039640042 0.0231346469 0.023155231 0.0231675319 0.0231678467 0.0231554396 0.0231318157
3063.4894788657007 0.0231008548 0.0230668206 0.0230346043 0.0230086464 0.0229920521 0.0229864959
3064.2126537673971 0.0229913183 0.0230037197 0.0230199657 0.0230356529 0.0230485108 0.0230584331
3064.9358286690931 0.0230680779 0.0230812859 0.0231017619 0.0231304187 0.0231656451 0.0232020989
3065.6590035707895 0.0232338365 0.0232564881 0.0232691783 0.0232753661 0.0232819375 0.0232970044
3066.382178472486 0.0233264435 0.0233720001 0.0234301183 0.023493316 0.0235508885 0.0235916786
3067.1053533741824 0.0236063711 0.023588879 0.0235371776 0.0234543532 0.0233487152 0.0232333485
3067.8285282758789 0.023123987 0.0230377503 0.0229886975 0.0229845755 0.0230250321 0.0231015887
3068.5517031775753 0.023200281 0.0233044177 0.0233994853 0.0234753732 0.0235264041 0.0235511344
3069.2748780792717 0.0235495605 0.023522485 0.0234708264 0.0233972128 0.023307493 0.0232102089
3069.9980529809677 0.0231160894 0.0230345707 0.0229705665 0.0229225699 0.0228840448 0.0228462555
3070.7212278826642 0.0228029527 0.0227546953 0.022709446 0.0226812363 0.0226851124 0.022730777
3071.4444027843606 0.0228194352 0.0229426548 0.0230850242 0.0232273359 0.0233541336 0.0234547388
3072.167577686057 0.0235247239 0.0235648118 0.0235777553 0.0235658959 0.0235305652 0.0234724358
3072.8907525877535 0.0233927369 0.023295572 0.0231881179 0.0230804123 0.0229833182 0.0229077246
3073.6139274894499 0.0228617266 0.0228493977 0.0228701793 0.022919042 0.0229870211 0.023062557
3074.3371023911463 0.0231350306 0.0231961217 0.0232421216 0.0232744217 0.0232987888 0.0233220365
3075.0602772928423 0.0233484339 0.0233773515 0.0234020371 0.0234123878 0.0233979113 0.0233525261
3075.7834521945388 0.0232781619 0.0231858809 0.0230928529 0.0230173115 0.0229744446 0.0229708459
3076.5066270962352 0.0230030566 0.0230581202 0.0231188498 0.0231670439 0.0231887475 0.0231775641
3077.2298019979316 0.0231356956 0.0230735634 0.0230055712 0.0229483154 0.0229157936 0.0229163188
3077.9529768996281 0.0229504108 0.0230109878 0.0230859332 0.023160018 0.0232191905 0.0232545659
3078.6761518013245 0.0232632346 0.0232484136 0.0232177228 0.0231808834 0.023146458 0.0231201444
3079.3993267030205 0.0231041387 0.0230970457 0.0230951589 0.023093516 0.0230872259 0.0230717473
3080.1225016047169 0.0230448414 0.0230065156 0.0229600519 0.0229117423 0.0228689555 0.0228393059
3080.8456765064134 0.0228281301 0.0228367914 0.0228628796 0.0229014736 0.0229476504 0.0229986198
3081.5688514081098 0.023055708 0.0231226254 0.0232050009 0.0233060606 0.0234246626 0.0235535819
3082.2920263098063 0.0236813501 0.0237938613 0.0238769595 0.0239208601 0.0239201244 0.0238749981
3083.0152012115027 0.0237909555 0.0236776061 0.0235479511 0.0234158859 0.0232960973 0.0232005622
3083.7383761131991 0.0231366381 0.0231052563 0.023100365 0.0231111273 0.0231240578 0.0231279358
3084.4615510148951 0.0231171735 0.0230936911 0.023065038 0.0230423622 0.0230362117 0.0230524242
3085.1847259165916 0.0230904054 0.0231433827 0.0232004914 0.0232490078 0.0232771486 0.0232773591
3085.907900818288 0.0232460368 0.0231849737 0.0231009945 0.0230050478 0.0229111128 0.0228323918
3086.6310757199844 0.0227804985 0.0227612592 0.0227737594 0.0228102151 0.0228581987 0.0229040924
3087.3542506216809 0.0229361933 0.0229481403 0.0229397565 0.0229153056 0.0228820182 0.0228472333
3088.0774255233773 0.0228173044 0.0227962118 0.0227869935 0.0227917433 0.022810949 0.0228445791
3088.8006004250738 0.0228900164 0.022943005 0.0229974315 0.0230485816 0.0230938997 0.0231345408
3089.5237753267697 0.0231751874 0.0232215691 0.0232768338 0.0233400781 0.0234041363 0.0234571863
3090.2469502284662 0.0234871935 0.0234846771 0.0234463457 0.0233754981 0.0232813079 0.0231753625
3090.9701251301626 0.0230673794 0.0229639988 0.0228686761 0.0227822457 0.0227054302 0.0226406734
3091.6933000318591 0.0225924347 0.0225665718 0.022568211 0.0226008464 0.0226636771 0.0227529835
3092.4164749335555 0.0228609592 0.0229769256 0.0230890773 0.0231854618 0.0232549496 0.0232908875
3093.1396498352519 0.0232917611 0.0232626405 0.023214858 0.0231637228 0.0231253505 0.0231106393
3093.8628247369479 0.0231247917 0.0231645629 0.023221394 0.0232832655 0.0233400781 0.0233857427
3094.5859996386444 0.0234179497 0.0234369375 0.0234427433 0.0234330557 0.023404032 0.0233520363
3095.3091745403408 0.0232768692 0.0231846236 0.0230876803 0.0230021477 0.0229417477 0.0229138024
3096.0323494420372 0.0229155142 0.0229355637 0.0229568724 0.0229649432 0.022952402 0.0229225699
3096.7555243437337 0.022888165 0.022864731 0.0228667557 0.0229001455 0.0229606461 0.0230343603
3097.4786992454301 0.023104243 0.0231537987 0.0231735092 0.0231621508 0.0231261551 0.0230766032
3098.2018741471265 0.023024857 0.0229796153 0.0229455549 0.0229234789 0.0229120925 0.0229097158
3098.9250490488225 0.0229159333 0.0229311641 0.0229563843 0.0229912139 0.0230332427 0.023076918
3099.648223950519 0.0231150072 0.0231388751 0.0231416002 0.0231199693 0.0230762884 0.0230188835
3100.3713988522154 0.0229608901 0.0229186937 0.022906607 0.0229333993 0.0229991786 0.0230944939
3101.0945737539118 0.0232013296 0.0232971795 0.0233625602 0.0233846586 0.0233616866 0.0233023893
3101.8177486556083 0.0232245401 0.0231487658 0.0230922922 0.0230664704 0.0230729003 0.0231045224
3102.5409235573047 0.0231483113 0.0231894813 0.023215346 0.0232176185 0.0231946204 0.0231507923
3103.2640984590012 0.0230953321 0.0230404045 0.0229984801 0.0229805224 0.0229935888 0.0230398457
3103.9872733606971 0.0231161602 0.0232155565 0.0233275611 0.0234411694 0.023547776 0.0236402042
3104.7104482623936 0.0237143841 0.0237678569 0.0237984471 0.0238038711 0.0237819273 0.0237318799
3105.43362316409 0.0236559827 0.0235607531 0.0234572571 0.02335798 0.023274526 0.0232146475
3106.1567980657865 0.0231789965 0.0231624302 0.0231549162 0.0231462847 0.0231283214 0.0230976045
3106.8799729674829 0.0230552889 0.0230062362 0.0229554065 0.0229061544 0.0228593163 0.022813499
3107.6031478691793 0.022766985 0.022718627 0.0226694029 0.0226217881 0.0225784034 0.0225412343
3108.3263227708753 0.0225102101 0.0224842466 0.0224616006 0.0224416777 0.0224255584 0.0224156156
3109.0494976725718 0.0224146377 0.0224237442 0.0224420615 0.0224659275 0.0224902146 0.0225111861
3109.7726725742682 0.0225262977 0.0225366279 0.0225457717 0.0225594509 0.0225828364 0.0226195902
3110.4958474759646 0.0226710085 0.0227354914 0.022809308 0.022886768 0.0229610298 0.0230244379
3111.2190223776611 0.0230693705 0.0230900217 0.023082789 0.0230484419 0.0229918417 0.0229223259
3111.9421972793575 0.0228517037 0.0227908697 0.0227486193 0.0227292068 0.0227316152 0.0227509588
3112.665372181054 0.0227797665 0.0228104591 0.0228358824 0.0228512846 0.0228542872 0.0228442997
3113.3885470827499 0.022823032 0.022793524 0.0227611903 0.0227317903 0.0227116793 0.0227066185
3114.1117219844464 0.0227199886 0.0227519721 0.0227997396 0.0228583384 0.022921104 0.0229820944
3114.8348968861428 0.0230366308 0.0230825432 0.0231198296 0.0231503733 0.0231765844 0.0232009813
3115.5580717878393 0.023224365 0.0232460015 0.0232635848 0.023273373 0.0232719053 0.0232571885
3116.2812466895357 0.0232296418 0.023192523 0.0231510364 0.0231110584 0.0230767429 0.0230498742
3117.0044215912321 0.0230292585 0.0230115466 0.0229943227 0.0229770988 0.0229627416 0.0229562093
3117.7275964929286 0.0229620785 0.0229811873 0.0230082963 0.0230318792 0.0230373647 0.0230129436
3118.4507713946246 0.0229543932 0.0228687469 0.022775121 0.0227006134 0.0226710439 0.0227039643
3119.173946296321 0.0228024982 0.0229534488 0.023129195 0.0232947674 0.0234194882 0.0234817732
3119.8971211980174 0.0234754775 0.0234092418 0.0233039632 0.0231854618 0.0230758004 0.0229905844
3120.6202960997139 0.0229344126 0.0229029059 0.0228861403 0.0228738114 0.022860609 0.0228478275
3121.3434710014103 0.0228426587 0.022854846 0.0228926018 0.0229571518 0.023041103 0.0231277626
3122.0666459031067 0.0231972411 0.0232293978 0.0232108366 0.0231384207 0.0230199657 0.0228723437
3122.7898208048027 0.0227155555 0.02257034 0.0224529132 0.0223729126 0.0223345049 0.0223369114
3123.5129957064992 0.0223757382 0.0224435627 0.0225311834 0.0226280373 0.0227222238 0.02280421
3124.2361706081956 0.0228667911 0.0229080394 0.022931058 0.0229434948 0.0229548123 0.0229734667
3124.959345509892 0.0230050832 0.0230508521 0.0231077038 0.023169769 0.0232302714 0.02328372
3125.6825204115885 0.023326477 0.0233578049 0.0233794842 0.023395393 0.0234096255 0.0234255716
3126.4056953132849 0.0234439671 0.0234618727 0.0234721899 0.0234648455 0.0234301891 0.0233616158
3127.1288702149814 0.0232594591 0.0231316406 0.0229937285 0.0228647646 0.0227615386 0.0226962846
3127.8520451166773 0.0226726141 0.0226859152 0.0227267984 0.0227851775 0.022853449 0.0229284037
3128.5752200183738 0.0230100434 0.023098968 0.0231931172 0.0232861321 0.0233682953 0.0234281253
3129.2983949200702 0.0234568715 0.0234507173 0.0234126337 0.0233506728 0.0232761353 0.023200281
3130.0215698217667 0.0231306273 0.0230713282 0.0230222717 0.022981327 0.0229445063 0.0229078308
3130.7447447234631 0.0228684321 0.0228243936 0.0227750875 0.0227217693 0.0226675533 0.0226172861
3131.4679196251595 0.0225760303 0.0225490164 0.0225391407 0.0225471668 0.0225714222 0.0226096772
3132.191094526856 0.0226602573 0.0227234103 0.0228015203 0.0228978749 0.0230136067 0.023146214
3132.914269428552 0.0232869368 0.0234219711 0.0235350076 0.0236109551 0.0236394331 0.0236197002
3133.6374443302484 0.0235599838 0.023476107 0.0233874563 0.0233136807 0.0232684091 0.0232566632
3134.3606192319448 0.023274038 0.0233084019 0.0233413018 0.02335326 0.0233289953 0.0232602991
3135.0837941336413 0.0231497083 0.0230099391 0.0228634737 0.0227385983 0.0226609204 0.0226505175
3135.8069690353377 0.0227144733 0.0228448939 0.0230190568 0.0232048612 0.0233694483 0.0234848168
3136.5301439370342 0.0235369317 0.0235274173 0.0234718397 0.0233930852 0.0233139619 0.0232504066
3137.2533188387301 0.023207726 0.0231814422 0.0231613461 0.0231385604 0.0231086817 0.0230740886
3137.9764937404266 0.0230412092 0.0230169259 0.0230032653 0.0229965933 0.0229883827 0.022969868
3138.699668642123 0.0229378007 0.0228971429 0.0228606444 0.022844648 0.0228630882 0.0229206849
3139.4228435438195 0.0230105333 0.0231148675 0.0232118852 0.023282567 0.0233160593 0.0233134013
3140.1460184455159 0.0232861321 0.0232516639 0.0232255887 0.0232186671 0.0232334528 0.0232654717
3140.8691933472123 0.0233060941 0.0233470704 0.0233831909 0.0234134719 0.0234408192 0.0234682728
3141.5923682489088 0.0234983172 0.023529727 0.0235577095 0.0235746764 0.0235723685 0.0235451516
3142.3155431506048 0.023491567 0.0234159902 0.0233277008 0.02323943 0.0231625345 0.0231043827
3143.0387180523012 0.0230654571 0.023039531 0.0230152495 0.0229805578 0.0229277052 0.0228557903
3143.7618929539976 0.0227726772 0.0226914659 0.0226283502 0.0225962382 0.0226019975 0.0226446185
3144.4850678556941 0.0227171611 0.0228089932 0.0229086336 0.0230065491 0.0230965912 0.023174243
3145.2082427573905 0.023238102 0.0232870765 0.0233217925 0.0233432595 0.0233539231 0.0233562663
3145.9314176590869 0.0233526304 0.0233440641 0.023330709 0.0233123526 0.0232896991 0.0232654382
3146.6545925607834 0.0232442189 0.0232314263 0.0232306905 0.0232418068 0.0232601594 0.0232778136
3147.3777674624794 0.0232868679 0.0232821126 0.0232637245 0.0232372284 0.0232116766 0.0231946204
3148.1009423641758 0.0231897607 0.0231950041 0.0232043359 0.0232102778 0.0232080761 0.0231978353
3148.8241172658722 0.0231850427 0.0231770035 0.0231795907 0.0231944453 0.0232175142 0.0232410729
3149.5472921675687 0.0232563484 0.0232571531 0.023242401 0.0232156254 0.0231836457 0.0231538676
3150.2704670692651 0.023132585 0.0231233593 0.0231269933 0.0231417753 0.0231645275 0.0231889915
3150.9936419709616 0.0232070275 0.0232091956 0.0231861267 0.0231319908 0.0230473578 0.0229414683
3151.7168168726575 0.0228301566 0.0227331165 0.0226694383 0.0226505864 0.0226783045 0.022743592
3152.439991774354 0.0228313785 0.0229240023 0.0230066553 0.023070978 0.0231147967 0.0231402386
3153.1631666760504 0.0231507923 0.0231486596 0.0231340528 0.0231059901 0.023063885 0.0230089258
3153.8863415777469 0.0229442269 0.0228742659 0.0228031967 0.0227328371 0.0226637814 0.0225959588
3154.6095164794433 0.0225303806 0.0224710573 0.0224251393 0.0224012751 0.022407556 0.022448482
3155.3326913811397 0.0225224942 0.0226227306 0.0227385648 0.0228577107 0.0229694843 0.0230666101
3156.0558662828362 0.0231457241 0.0232063644 0.0232498124 0.0232781619 0.0232932642 0.0232973546
3156.7790411845322 0.0232929159 0.0232830923 0.0232710317 0.0232598446 0.0232508257 0.0232443232
3157.5022160862286 0.023239674 0.0232367739 0.0232379623 0.0232482739 0.0232747365 0.0233243108
3158.225390987925 0.0234015137 0.0235050675 0.0236268733 0.0237524584 0.0238656178 0.0239505153
3158.9485658896215 0.0239971187 0.0240042973 0.0239785258 0.0239325538 0.0238792002 0.0238292124
3159.6717407913179 0.0237868261 0.0237501487 0.0237124581 0.0236668289 0.0236088913 0.02353945
3160.3949156930144 0.0234639365 0.0233907085 0.0233281553 0.0232816581 0.0232530273 0.0232410021
3161.1180905947108 0.0232434142 0.0232592858 0.0232897345 0.0233364422 0.0233997647 0.0234757569
3161.8412654964068 0.0235545617 0.0236213095 0.0236590263 0.0236550383 0.0236044116 0.0235126223
3162.5644403981032 0.0233945195 0.0232709255 0.0231611375 0.0230778269 0.0230247173 0.0229973271
3163.2876152997997 0.0229864959 0.0229840856 0.0229874402 0.0229998771 0.0230288394 0.0230801683
3164.0107902014961 0.0231539384 0.0232403036 0.023323087 0.0233814064 0.0233985055 0.0233682245
3164.7339651031925 0.0232966915 0.023201365 0.0231051873 0.0230309013 0.0229936931 0.0229973625
3165.457140004889 0.0230362825 0.0230983738 0.0231700148 0.0232394654 0.0233007465 0.0233515464
3166.180314906585 0.023392247 0.0234241392 0.0234475695 0.0234621186 0.0234675743 0.0234642867
3166.9034898082814 0.0234535839 0.0234371834 0.0234163757 0.023391407 0.0233617909 0.0233271066
3167.6266647099778 0.0232889652 0.023250021 0.0232148916 0.0231871046 0.0231684074 0.0231564883
3168.3498396116743 0.0231468081 0.0231340528 0.0231150426 0.0230916291 0.0230705589 0.0230614394
3169.0730145133707 0.0230722353 0.0231057815 0.0231567677 0.0232122 0.023254741 0.0232685134
3169.7961894150671 0.0232458264 0.023189202 0.023112176 0.0230349191 0.022979999 0.0229637548
3170.5193643167636 0.0229930654 0.0230641998 0.0231647361 0.0232773591 0.0233845897 0.023473274
3171.2425392184596 0.0235357787 0.023569325 0.0235738717 0.0235499796 0.0234970227 0.0234139971
3171.965714120156 0.0233003963 0.0231589694 0.0229982343 0.0228328798 0.022683017 0.0225691888
3172.6888890218524 0.0225099307 0.0225161426 0.0225881413 0.0227157306 0.0228802022 0.0230592731
3173.4120639235489 0.0232305173 0.0233770367 0.0234902371 0.0235690437 0.0236190017 0.0236502457
3174.1352388252453 0.0236735828 0.0236982517 0.023730306 0.0237718821 0.0238206722 0.0238699932
3174.8584137269418 0.0239094459 0.023927547 0.0239122473 0.0238562357 0.0237587225 0.0236284118
3175.5815886286382 0.0234816335 0.0233407766 0.0232291874 0.0231641084 0.0231528543 0.0231903903
3176.3047635303342 0.0232611727 0.0233433302 0.0234143473 0.0234589353 0.0234709308 0.0234549493
3177.0279384320306 0.023422705 0.0233896244 0.023369519 0.0233708825 0.0233957786 0.0234401207
3177.7511133337271 0.0234957989 0.0235519037 0.0235969611 0.0236213449 0.0236171465 0.0235799234
3178.4742882354235 0.023510104 0.0234138928 0.0233017243 0.0231877342 0.023086736 0.0230092052
3179.1974631371199 0.0229594931 0.0229343064 0.0229240377 0.0229163188 0.0228999015 0.0228702836
3179.9206380388164 0.0228299107 0.0227877628 0.0227554291 0.022743417 0.0227565113 0.0227933489
3180.6438129405124 0.0228466038 0.0229062233 0.0229629856 0.0230102185 0.0230449811 0.0230673794
3181.3669878422088 0.0230787359 0.0230812859 0.0230775476 0.023072375 0.0230724104 0.0230873656
3182.0901627439052 0.0231269579 0.0231980439 0.0233013406 0.0234282296 0.0235633068 0.0236853398
3182.8133376456017 0.0237735268 0.023813881 0.0238015968 0.0237426944 0.0236504897 0.0235427041
3183.5365125472981 0.0234339647 0.0233334694 0.0232425407 0.0231567342 0.0230692662 0.0229741652
3184.2596874489946 0.0228718556 0.0227683131 0.0226765238 0.0226115622 0.0225883853 0.0226162039
3184.982862350691 0.0226959344 0.0228189453 0.0229690988 0.0231269933 0.0232730228 0.023392912
3185.706037252387 0.0234801993 0.0235351473 0.0235632379 0.0235706177 0.0235623624 0.0235403944
3186.4292121540834 0.0235048216 0.023456417 0.0233988911 0.0233397987 0.0232898742 0.0232579913
3187.1523870557799 0.0232486241 0.0232593194 0.0232813433 0.0233027395 0.023313297 0.0233097319
3187.8755619574763 0.023296237 0.0232827775 0.0232803989 0.0232962016 0.0233297646 0.0233738199
3188.5987368591727 0.0234160945 0.02344561 0.0234570466 0.0234516617 0.023436239 0.0234196968
3189.3219117608692 0.023409836 0.0234096609 0.0234187525 0.0234342441 0.0234530941 0.0234730653
3190.0450866625652 0.0234913211 0.0235037375 0.0235033184 0.0234803036 0.0234272163 0.0233407766
3190.7682615642616 0.0232279655 0.0231038593 0.0229913536 0.0229124408 0.022881845 0.0229025912
3191.491436465958 0.0229653623 0.0230517257 0.0231407266 0.0232167803 0.0232724994 0.0233097654
3192.2146113676545 0.0233359877 0.0233599376 0.0233886093 0.0234237537 0.0234644953 0.023508111
3192.9377862693509 0.0235520788 0.023594128 0.0236317366 0.0236612316 0.0236773267 0.0236747377
3193.6609611710473 0.02365168 0.0236109197 0.0235616639 0.0235161558 0.0234869495 0.0234805848
3194.3841360727438 0.02349489 0.0235192329 0.0235390309 0.0235405695 0.0235174149 0.02347303
3195.1073109744398 0.0234206766 0.0233781897 0.0233604275 0.0233755317 0.0234205015 0.0234836265
3195.8304858761362 0.0235461313 0.0235901382 0.0236032922 0.0235814974 0.0235294811 0.0234589353
3196.5536607778326 0.0233854633 0.023323996 0.0232857484 0.0232771132 0.0232979842 0.0233428758
3197.2768356795291 0.0234016888 0.0234632026 0.0235156994 0.0235502236 0.0235615931 0.0235487912
3198.0000105812255 0.0235144068 0.0234629922 0.0234000105 0.0233304985 0.0232585855 0.0231883638
3198.723185482922 0.0231242683 0.023072131 0.0230391473 0.0230327528 0.0230585728 0.0231189914
3199.4463603846184 0.0232106969 0.0233240295 0.0234430581 0.0235498752 0.023626348 0.0236591678
3200.1695352863144 0.0236439127 0.0235865004 0.0235022344 0.0234111305 0.0233346932 0.0232890695
3200.8927101880108 0.0232806448 0.0233053956 0.0233510919 0.0234017577 0.0234427433 0.0234653
3201.6158850897073 0.0234690774 0.0234605782 0.0234497376 0.02344561 0.0234534089 0.0234726109
3202.3390599914037 0.023497792 0.0235204566 0.0235329438 0.023529131 0.0235065017 0.0234654751
3203.0622348931001 0.0234094858 0.0233443081 0.0232769735 0.0232164655 0.0231724251 0.0231527146
3203.7854097947966 0.0231629536 0.0232037418 0.0232700165 0.023351511 0.0234353635 0.023508599
3204.5085846964926 0.0235608928 0.0235880744 0.0235911179 0.0235764962 0.0235534776 0.0235326644
3205.231759598189 0.0235233959 0.0235319994 0.0235609282 0.0236084703 0.0236685444 0.0237319861
3205.9549344998854 0.0237884019 0.0238290019 0.0238481499 0.0238449294 0.023823088 0.0237896964
3206.6781094015819 0.0237523541 0.0237166584 0.0236857254 0.0236602165 0.0236397479 0.0236249138
3207.4012843032783 0.0236180909 0.023622185 0.0236383844 0.0236640312 0.0236917082 0.0237095188
3208.1244592049748 0.0237071402 0.023677852 0.0236236192 0.0235543866 0.0234866701 0.023436483
3208.8476341066712 0.0234142412 0.0234207809 0.0234476048 0.0234810729 0.0235060472 0.0235130414
3209.5708090083672 0.0235000309 0.0234719459 0.0234365184 0.0234009195 0.0233687833 0.0233395193
3210.2939839100636 0.0233108141 0.0232817624 0.0232542865 0.0232337322 0.0232264269 0.0232360736
3211.0171588117601 0.0232627466 0.0233013052 0.0233451836 0.0233875271 0.0234252568 0.0234591458
3211.7403337134565 0.0234918818 0.0235250387 0.0235568006 0.0235809032 0.0235890187 0.0235746056
3212.4635086151529 0.0235366523 0.0234819837 0.0234230887 0.0233757421 0.0233518966 0.0233571753
3213.1866835168494 0.0233888198 0.0234375317 0.0234914273 0.0235390309 0.0235731378 0.0235894043
3213.9098584185458 0.0235852059 0.0235580951 0.0235049278 0.0234234743 0.0233153943 0.0231901109
3214.6330333202418 0.0230642334 0.0229594931 0.0228985399 0.022896897 0.0229585152 0.0230728295
3215.3562082219382 0.0232188776 0.0233694483 0.0234990511 0.0235921685 0.0236456618 0.0236692447
3216.0793831236347 0.0236807913 0.0237017516 0.0237509534 0.023838209 0.0239645895 0.0241208151
3216.8025580253311 0.0242908299 0.0244530607 0.0245860741 0.0246724803 0.0247003976 0.0246679913
3217.5257329270275 0.0245823562 0.0244600363 0.0243212823 0.0241880007 0.0240778383 0.0240000598
3218.248907828724 0.0239541568 0.0239302423 0.023913648 0.0238873567 0.0238376483 0.0237580929
3218.97208273042 0.0236498248 0.0235211216 0.0233843792 0.0232537277 0.0231411476 0.0230549406
3219.6952576321164 0.0229995623 0.0229763314 0.0229845401 0.0230224114 0.0230874363 0.0231759548
3220.4184325338128 0.0232808888 0.0233923867 0.0234976877 0.0235828627 0.0236370191 0.0236548632
3221.1416074355093 0.0236393996 0.0236005299 0.0235535819 0.0235137418 0.0234899223 0.0234838016
3221.8647823372057 0.023488069 0.0234912522 0.0234828219 0.0234591458 0.0234264806 0.0234001148
3222.5879572389022 0.0233977716 0.0234333705 0.0235102791 0.0236184411 0.0237369891 0.0238394681
3223.3111321405986 0.0239043701 0.0239205789 0.0238905773 0.0238284077 0.0237544533 0.0236878246
3224.0343070422946 0.0236404836 0.0236154683 0.023609031 0.023614699 0.0236268025 0.0236433521
3224.757481943991 0.023666095 0.0236974824 0.0237375852 0.0237831511 0.0238274969 0.023863202
3225.4806568456875 0.0238855705 0.0238941126 0.0238924678 0.0238864813 0.0238807052 0.0238751043
3226.2038317473839 0.0238647424 0.0238410085 0.023795506 0.0237239711 0.0236287285 0.0235191621
3226.9270066490803 0.0234100465 0.0233175624 0.023254076 0.0232261829 0.0232325085 0.0232646689
3227.6501815507768 0.0233089961 0.023351267 0.0233801473 0.0233900789 0.0233830847 0.0233685747
3228.3733564524732 0.0233620703 0.0233794134 0.0234336853 0.0235297959 0.0236624219 0.0238157716
3229.0965313541692 0.0239661653 0.0240901317 0.024167927 0.0241902079 0.0241600107 0.0240916386
3229.8197062558656 0.0240060128 0.0239239763 0.0238630269 0.0238320827 0.0238320474 0.0238571465
3230.5428811575621 0.0238981396 0.0239454731 0.0239908863 0.0240280051 0.0240537096 0.0240661409
3231.2660560592585 0.0240656156 0.0240541641 0.0240353588 0.0240131561 0.0239907466 0.023968827
3231.989230960955 0.0239452273 0.0239148382 0.0238714274 0.0238115024 0.0237356946 0.0236508753
3232.7124058626514 0.0235681348 0.0235005543 0.0234576054 0.0234416239 0.0234457515 0.0234564524
3233.4355807643474 0.0234569423 0.0234336853 0.0233816523 0.023306584 0.0232249238 0.023157049
3234.1587556660438 0.023122659 0.0231340174 0.023191683 0.0232851189 0.0233955346 0.0235030036
3234.8819305677403 0.0235906634 0.0236494746 0.0236794613 0.0236869846 0.0236805808 0.0236679837
3235.6051054694367 0.0236524846 0.023633346 0.0236065108 0.0235679243 0.02351542 0.0234494582
3236.3282803711331 0.0233717915 0.0232847687 0.0231899712 0.0230887644 0.0229834225 0.022880692
3237.0514552728296 0.0227935929 0.0227390528 0.022737097 0.0228039995 0.0229459051 0.0231553707
3237.774630174526 0.0234110598 0.0236829259 0.0239359494 0.0241410956 0.0242808796 0.0243496317
3238.497805076222 0.0243535917 0.0243056528 0.0242214222 0.0241148956 0.0239985548 0.0238842405
3239.2209799779184 0.0237829406 0.0237062294 0.0236626659 0.0236547235 0.0236752629 0.023707455
3239.9441548796149 0.0237299558 0.0237207171 0.0236677397 0.0235736277 0.0234570466 0.0233477
3240.6673297813113 0.0232761689 0.023267081 0.0233288202 0.0234519765 0.0236124247 0.0237797219
3241.3905046830077 0.0239248518 0.0240264982 0.0240756683 0.0240741614 0.0240316465 0.0239598975
3242.1136795847042 0.0238713939 0.0237767119 0.0236833449 0.0235973801 0.023522906 0.023461068
3242.8368544864006 0.023410745 0.0233676657 0.0233266167 0.0232831966 0.0232366677 0.023191195
3243.5600293880966 0.0231560338 0.0231423005 0.0231597032 0.023213109 0.0233004317 0.0234128777
3244.283204289793 0.0235373862 0.0236614421 0.0237756968 0.0238774493 0.0239699464 0.0240609236
3245.0063791914895 0.0241581183 0.0242653228 0.0243797358 0.024490254 0.0245813057 0.0246337987
3245.7295540931859 0.0246322211 0.0245682616 0.0244435966 0.0242697727 0.024065651 0.0238549057
3246.4527289948824 0.0236586072 0.0234936643 0.0233712327 0.0232956763 0.0232677441 0.0232849438
3247.1759038965788 0.0233439244 0.0234381277 0.0235578846 0.0236897841 0.0238165762 0.0239208601
3247.8990787982748 0.0239897296 0.0240169745 0.0240065027 0.0239694919 0.0239225402 0.0238816161
3248.6222536999712 0.0238581952 0.0238580201 0.0238814745 0.0239252355 0.0239842329 0.0240531489
3249.3454286016677 0.0241241064 0.0241854079 0.0242218077 0.0242161658 0.0241539516 0.0240297895
3250.0686035033641 0.0238512307 0.0236400981 0.0234258864 0.0232415982 0.0231127702 0.0230507813
3250.7917784050605 0.0230530184 0.0231051166 0.0231889226 0.0232871473 0.0233889949 0.023490062
3251.514953306757 0.0235885996 0.0236827154 0.0237674378 0.0238349531 0.0238780789 0.0238938332
3252.2381282084534 0.0238854662 0.0238617659 0.0238345675 0.0238140915 0.0238060057 0.0238105915
3252.9613031101494 0.0238243118 0.0238433182 0.0238647778 0.0238882657 0.0239142422 0.023941271
3253.6844780118458 0.0239656046 0.0239806622 0.0239796806 0.0239591636 0.0239210706 0.0238727238
3254.4076529135423 0.0238240324 0.0237838514 0.0237565879 0.0237410497 0.0237314254 0.0237207171
3255.1308278152387 0.0237042364 0.0236814562 0.0236556679 0.0236324705 0.0236167274 0.0236111302
3255.8540027169352 0.0236152578 0.0236266293 0.0236423034 0.0236597266 0.0236779917 0.0236972366
3256.5771776186316 0.0237187222 0.0237453897 0.0237810519 0.0238308925 0.0238995049 0.0239882246
3257.300352520328 0.0240922347 0.0241991412 0.0242912155 0.0243481249 0.0243539419 0.0243030954
3258.023527422024 0.0242025387 0.0240706243 0.0239298232 0.0238016322 0.0236991961 0.0236246698
3258.7467023237205 0.023572227 0.0235337839 0.0235049278 0.0234879293 0.0234911125 0.0235240944
3259.4698772254169 0.0235930085 0.0236958023 0.023822248 0.0239568874 0.0240849145 0.0241950061
3260.1930521271133 0.0242816862 0.0243433937 0.0243793502 0.0243866052 0.0243611261 0.0242995564
3260.9162270288098 0.0242034141 0.0240819715 0.0239520557 0.0238335878 0.0237429384 0.0236884188
3261.6394019305062 0.0236671455 0.0236679837 0.0236755777 0.0236782357 0.0236723591 0.0236630514
3262.3625768322022 0.0236614067 0.0236797053 0.0237259306 0.0238008257 0.0238973331 0.0240020212
3263.0857517338986 0.0241001137 0.0241767559 0.0242201611 0.0242249258 0.0241917837 0.0241300967
3263.8089266355951 0.0240558106 0.0239912011 0.0239580777 0.023970928 0.0240319613 0.0241266638
3264.5321015372915 0.0242266767 0.0242947545 0.0242993459 0.0242224019 0.0240675081 0.0238586869
3265.2552764389879 0.0236346759 0.0234380923 0.0233005714 0.023238102 0.0232469104 0.0233086813
3265.9784513406844 0.0233963039 0.0234839413 0.0235541426 0.0235997252 0.0236240048 0.0236373693
3266.7016262423808 0.0236541294 0.0236861091 0.0237399992 0.0238150377 0.0239024796 0.0239873491
3267.4248011440768 0.0240522381 0.0240843892 0.0240800809 0.0240486655 0.0240104608 0.0239932667
3268.1479760457732 0.0240227524 0.0241125487 0.0242592264 0.0244408641 0.0246249959 0.0247746538
3268.8711509474697 0.0248616226 0.0248739384 0.0248164348 0.0247077979 0.024571944 0.024432065
3269.5943258491661 0.0243032705 0.0241921693 0.0240989942 0.0240214206 0.0239577275 0.0239081159
3270.3175007508626 0.0238741934 0.0238566212 0.0238546263 0.0238651969 0.0238845907 0.023909796
3271.040675652559 0.0239398349 0.023974603 0.0240134373 0.0240534991 0.0240881369 0.0241083093
3271.7638505542554 0.0241047721 0.024070695 0.0240041576 0.023908956 0.0237936862 0.0236692093
3272.4870254559514 0.0235465523 0.023436483 0.0233469661 0.0232841745 0.0232521184 0.0232515596
3273.2102003576479 0.023279665 0.0233292393 0.0233898684 0.0234488975 0.0234949235 0.0235207379
3273.9333752593443 0.0235243756 0.023509685 0.0234832074 0.0234533045 0.0234255716 0.0234031565
3274.6565501610407 0.0233870707 0.023377141 0.0233743079 0.0233812667 0.0234019328 0.0234396998
3275.3797250627372 0.0234954134 0.0235662814 0.0236452408 0.0237228163 0.0237895921 0.0238386989
3276.1028999644336 0.0238679983 0.0238804594 0.0238839611 0.0238880571 0.0239016041 0.0239301026
3276.8260748661296 0.023973519 0.0240274798 0.0240830574 0.024131462 0.024166422 0.0241863895
3277.549249767826 0.0241950061 0.024200052 0.0242096502 0.0242280439 0.024252709 0.0242739767
3278.2724246695225 0.0242780056 0.0242512375 0.0241860729 0.0240850896 0.0239613689 0.0238363892
3278.9955995712189 0.0237320904 0.023666935 0.0236492306 0.0236768369 0.0237377957 0.0238164719
3279.7187744729154 0.0238978583 0.0239713471 0.0240323823 0.0240812711 0.0241206046 0.0241524447
3280.4419493746118 0.0241765808 0.024190383 0.0241902769 0.0241728313 0.0241361205 0.0240811314
3281.1651242763082 0.0240108799 0.0239315722 0.023850074 0.0237758365 0.0237178486 0.0236840807
3281.8882991780042 0.0236800555 0.0237068255 0.0237600524 0.0238307528 0.0239071716 0.02397779
3282.6114740797007 0.0240334328 0.0240699593 0.0240879953 0.0240913928 0.024084948 0.0240719561
3283.3346489813971 0.0240529384 0.0240259729 0.0239880495 0.0239379108 0.0238764342 0.0238085259
3284.0578238830935 0.023741154 0.0236807559 0.0236314908 0.0235930774 0.0235600192 0.0235244446
3284.78099878479 0.0234784149 0.0234184042 0.0233480502 0.0232794899 0.0232304465 0.0232219528
3285.5041736864864 0.0232701562 0.0233814418 0.0235483013 0.0237497631 0.0239546113 0.024127854
3286.2273485881828 0.0242415667 0.0242793374 0.0242412165 0.0241420064 0.0240081139 0.0238695722
3286.9505234898788 0.0237521082 0.0236743875 0.023644926 0.0236625616 0.023719633 0.0238048863
3287.6736983915753 0.0239062253 0.0240111966 0.024108801 0.0241897162 0.0242467523 0.0242757294
3288.3968732932717 0.0242762547 0.0242513418 0.0242060069 0.0241458584 0.024076404 0.0240012165
3289.1200481949681 0.0239238366 0.0238484647 0.0237804558 0.0237270519 0.0236952417 0.023689609
3289.8432230966646 0.02371029 0.0237518623 0.0238047112 0.02385718 0.0238997489 0.0239272323
3290.566397998361 0.0239392053 0.0239391364 0.0239311177 0.0239178836 0.0238995384 0.0238735992
3291.289572900057 0.0238383841 0.023794841 0.0237483643 0.0237083305 0.0236852001 0.0236869138
3292.0127478017534 0.0237165187 0.0237703416 0.0238389093 0.0239100065 0.0239724685 0.0240177084
3292.7359227034499 0.0240419414 0.02404611 0.024034027 0.02401039 0.0239804871 0.023948729
3293.4590976051463 0.023918584 0.0238921177 0.0238699578 0.0238505993 0.0238304026 0.0238043964
3294.1822725068428 0.0237681363 0.0237202272 0.0236637499 0.0236071758 0.0235630628 0.0235444177
3294.9054474085392 0.02356009 0.0236112345 0.0236895736 0.0237783212 0.0238553956 0.0239008348
3295.6286223102356 0.0239022691 0.023858266 0.0237795822 0.0236855149 0.023599619 0.0235405695
3296.3517972119316 0.0235181488 0.0235302169 0.0235636216 0.0235982556 0.0236127041 0.0235917475
3297.0749721136281 0.0235289223 0.0234292448 0.0233064089 0.0231814422 0.0230767783 0.023010917
3297.7981470153245 0.0229977462 0.0230426416 0.023142755 0.0232870076 0.0234586913 0.0236379988
3298.5213219170209 0.0238039419 0.0239401516 0.0240365136 0.0240916032 0.0241119526 0.0241098162
3299.2444968187174 0.0240989234 0.0240886621 0.024081761 0.0240720604 0.024047371 0.0239941068
3299.9676717204138 0.0239029694 0.0237747859 0.0236226041 0.0234707557 0.0233477708 0.0232824627
3300.6908466221103 0.023293579 0.0233844146 0.0235414449 0.0237371642 0.0239356346 0.0240995884
3301.4140215238062 0.0242017675 0.0242289193 0.0241851285 0.024089817 0.0239734128 0.0238698181
3302.1371964255027 0.023805622 0.0237975009 0.023847064 0.0239421111 0.0240590665 0.0241694339
3302.8603713271991 0.0242475942 0.0242732763 0.0242377836 0.0241444577 0.0240088496 0.0238542762
3303.5835462288956 0.0237080846 0.0235969611 0.0235396959 0.023544522 0.0236066859 0.0237103235
3304.306721130592 0.023831768 0.0239444915 0.0240279697 0.024069678 0.0240684524 0.0240324177
3305.0298960322884 0.0239762142 0.023916414 0.0238660369 0.0238340776 0.023823332 0.0238318034
3305.7530709339844 0.0238538198 0.0238810908 0.0239054561 0.0239186548 0.0239157826 0.0238962825
3306.4762458356809 0.0238653719 0.0238330625 0.0238115713 0.0238104519 0.0238312073 0.0238650218
3307.1994207373773 0.0238927118 0.0238918383 0.0238421988 0.0237360448 0.0235810075 0.0234014075
3307.9225956390737 0.0232303068 0.0230980236 0.0230264999 0.0230198614 0.0230667852 0.0231443271
3308.6457705407702 0.0232286993 0.023301376 0.0233541336 0.0233884007 0.0234114099 0.0234305039
3309.3689454424666 0.0234498065 0.0234690774 0.0234856904 0.0234975815 0.0235056262 0.0235138107
3310.092120344163 0.0235267878 0.0235478114 0.0235766713 0.023609871 0.0236418135 0.0236680899
3310.815295245859 0.0236881748 0.0237048306 0.0237237271 0.0237504281 0.023788821 0.0238392241
3311.5384701475555 0.0238992237 0.0239643101 0.0240300354 0.0240918137 0.0241454393 0.0241864938
3312.2616450492519 0.0242107008 0.0242140293 0.024194831 0.024154827 0.0241000801 0.0240392815
3312.9848199509483 0.0239824466 0.0239375606 0.0239085015 0.0238952339 0.0238941479 0.0239014644
3313.7079948526448 0.0239142422 0.0239316784 0.0239545759 0.0239832886 0.0240162387 0.0240494013
3314.4311697543412 0.0240761936 0.0240912884 0.0240918137 0.0240799058 0.0240623951 0.0240494013
3315.1543446560377 0.0240508374 0.0240725856 0.0241139494 0.0241669808 0.0242180582 0.024250431
3315.8775195577336 0.0242481194 0.0242009964 0.0241060331 0.0239692461 0.0238038357 0.0236290768
3316.6006944594301 0.0234654397 0.0233317912 0.0232438352 0.0232111514 0.0232370533 0.0233188216
3317.3238693611265 0.023447359 0.0236077365 0.0237785317 0.0239364393 0.0240554251 0.024113318
3318.047044262823 0.0240970664 0.024005102 0.0238509141 0.0236593429 0.0234653708 0.0233036131
3318.7702191645194 0.0232014004 0.0231748726 0.0232240856 0.0233352873 0.0234834515 0.0236400291
3319.4933940662158 0.0237780064 0.0238754898 0.0239208248 0.0239125974 0.0238598064 0.0237787068
3320.2165689679118 0.0236906577 0.0236183014 0.023579469 0.0235854853 0.0236380696 0.0237299204
3320.9397438696083 0.0238460843 0.0239680912 0.0240778737 0.0241599753 0.0242040809 0.0242058672
3321.6629187713047 0.0241661053 0.0240910426 0.0239917617 0.0238838214 0.0237842016 0.023709625
3322.3860936730011 0.0236725677 0.0236777812 0.0237204023 0.0237875618 0.0238622222 0.0239276513
3323.1092685746976 0.0239719786 0.0239912365 0.023987839 0.0239688624 0.0239415858 0.0239116866
3323.832443476394 0.0238828398 0.0238572862 0.0238383487 0.0238304734 0.0238383133 0.0238641128
3324.5556183780905 0.0239053499 0.0239544716 0.023999745 0.0240300354 0.0240384061 0.0240244679
3325.2787932797864 0.0239932667 0.0239531752 0.0239107069 0.0238679275 0.0238227379 0.0237707626
3326.0019681814829 0.0237094853 0.0236407984 0.0235702693 0.0235053822 0.0234519411 0.0234112348
3326.7251430831793 0.0233808476 0.0233571753 0.0233395882 0.0233325604 0.0233446229 0.0233827699
3327.4483179848758 0.0234474652 0.0235280823 0.0236053579 0.0236550029 0.0236577317 0.0236074571
3328.1714928865722 0.0235138461 0.0233996958 0.0232911315 0.0232105926 0.0231684074 0.0231617317
3328.8946677882686 0.0231797658 0.023210628 0.0232487973 0.0232959557 0.0233587846 0.0234432332
3329.6178426899651 0.0235481262 0.0236639604 0.0237756968 0.0238684881 0.0239350051 0.0239780359
3330.3410175916611 0.0240096208 0.0240442529 0.0240927245 0.0241570324 0.0242297258 0.0242963675
3331.0641924933575 0.0243415721 0.0243548546 0.0243315138 0.0242728554 0.0241832715 0.0240672976
3331.7873673950539 0.0239282828 0.0237696413 0.0235960167 0.0234150123 0.0232365988 0.0230727941
3332.5105422967504 0.0229338184 0.0228286199 0.0227643326 0.022747118 0.0227835011 0.0228788406
3333.2337171984468 0.0230341852 0.0232428201 0.0234866701 0.0237395447 0.0239685122 0.0241434779
3333.9568921001432 0.0242471024 0.0242764652 0.0242456309 0.0241788216 0.0241041072 0.0240429584
3334.6800670018392 0.024005523 0.023989765 0.0239857379 0.0239806622 0.0239636786 0.0239301734
3335.4032419035357 0.0238817204 0.0238248371 0.0237679277 0.0237195976 0.0236868802 0.0236729179
3336.1264168052321 0.0236773975 0.0236947518 0.0237163436 0.0237314254 0.0237322301 0.0237172171
3336.8495917069285 0.0236934572 0.023675438 0.0236793905 0.0237178821 0.0237915162 0.0238877069
3337.572766608625 0.0239811521 0.0240438338 0.024053324 0.0240007248 0.0238943938 0.0237572528
3338.2959415103214 0.0236193519 0.0235058013 0.0234324262 0.0234020036 0.0234071426 0.0234358534
3339.0191164120179 0.0234781355 0.023528643 0.0235854853 0.0236467458 0.0237075947 0.0237577073
3339.7422913137138 0.0237842016 0.0237767119 0.0237317048 0.023655843 0.0235642865 0.0234777164
3340.4654662154103 0.0234133676 0.0233811978 0.0233822111 0.0234088562 0.0234502628 0.0234959032
3341.1886411171067 0.0235399045 0.0235805195 0.0236179177 0.023651924 0.0236799866 0.0236973427
3341.9118160188032 0.023699617 0.0236846395 0.0236548278 0.023615852 0.0235751309 0.0235375613
3342.6349909204996 0.0235031787 0.0234676078 0.0234235786 0.0233656373 0.023293335 0.0232134592
3343.358165822196 0.0231381766 0.0230820198 0.0230552889 0.0230614729 0.0230943896 0.0231418107
3344.0813407238925 0.0231877342 0.0232192613 0.0232307613 0.0232250635 0.0232118517 0.0232037418
3344.8045156255885 0.0232127942 0.0232454073 0.0233014803 0.0233741682 0.0234527793 0.0235257745
3345.5276905272849 0.023582058 0.0236147679 0.02362068 0.0236009844 0.0235602297 0.023506362
3346.2508654289813 0.0234493185 0.0233995207 0.0233666506 0.023358224 0.023376897 0.0234210268
3346.9740403306778 0.0234833825 0.0235536173 0.0236181263 0.0236634016 0.0236786567 0.0236572772
3347.6972152323742 0.0235988852 0.0235102084 0.0234058853 0.0233052913 0.0232297815 0.0231981147
3348.4203901340707 0.0232200306 0.0232932288 0.0234017577 0.0235202126 0.0236185119 0.0236701183
3349.1435650357666 0.0236616172 0.0235955268 0.0234909374 0.0233770367 0.0232880563 0.0232515596
3349.8667399374631 0.0232824963 0.023380043 0.0235288162 0.0237039197 0.0238752086 0.0240158532
3350.5899148391595 0.0241065938 0.0241368227 0.0241063144 0.0240242574 0.0239071716 0.0237741917
3351.313089740856 0.0236463957 0.0235430542 0.0234779269 0.0234588645 0.0234874748 0.0235587955
3352.0362646425524 0.0236636102 0.0237895921 0.02392352 0.024051467 0.0241606757 0.0242402703
3352.7594395442488 0.024282176 0.0242827367 0.0242428631 0.0241682082 0.0240674019 0.0239503402
3353.4826144459453 0.0238266923 0.023703536 0.0235863607 0.0234798491 0.0233882964 0.0233160947
3354.2057893476413 0.0232669413 0.0232420508 0.0232380666 0.0232461412 0.0232546367 0.0232503712
3354.9289642493377 0.0232236311 0.0231713075 0.0230982676 0.0230153184 0.0229361225 0.0228747893
3355.6521391510341 0.0228411909 0.0228407383 0.0228743702 0.022939546 0.0230309367 0.0231403075
3356.3753140527306 0.0232577119 0.023370428 0.0234658252 0.0235347636 0.0235739425 0.0235890895
3357.098488954427 0.0235921331 0.0235993396 0.0236234795 0.0236686841 0.0237275772 0.0237819962
3357.8216638561235 0.0238108374 0.0237942468 0.0237232726 0.0236022789 0.0234498773 0.0232923552
3358.5448387578199 0.0231582709 0.0230728649 0.0230513066 0.0230978131 0.0232058391 0.0233602878
3359.2680136595159 0.0235392414 0.0237176735 0.0238727592 0.0239855982 0.0240458995 0.0240544453
3359.9911885612123 0.0240226109 0.0239693522 0.023914488 0.0238753837 0.0238604359 0.0238681734
3360.7143634629088 0.0238888264 0.0239083264 0.0239134729 0.0238935873 0.0238434598 0.0237623621
3361.4375383646052 0.0236529037 0.0235205274 0.023374239 0.0232283138 0.0230998062 0.0230093095
3362.1607132663016 0.0229740944 0.0230032653 0.0230933055 0.0232270919 0.0233775955 0.0235135313
3362.8838881679981 0.0236086454 0.023649266 0.0236357953 0.0235815328 0.0235063266 0.0234315172
3363.607063069694 0.0233718269 0.023333855 0.0233162344 0.0233124923 0.0233144853 0.023316199
3364.3302379713905 0.0233153943 0.0233142413 0.0233187508 0.0233372115 0.0233776309 0.0234441422
3365.0534128730869 0.0235345531 0.0236370545 0.0237306915 0.0237907805 0.0237925313 0.0237222575
3365.7765877747834 0.0235831421 0.0233985055 0.0232060496 0.0230489299 0.022964837 0.0229724888
3366.4997626764798 0.0230673086 0.0232228264 0.023400709 0.0235611033 0.0236743521 0.0237290803
3367.2229375781762 0.0237321611 0.0237037446 0.0236673541 0.0236451011 0.0236503854 0.0236868095
3367.9461124798727 0.023750674 0.0238340776 0.0239275116 0.0240208954 0.0241038613 0.0241666306
3368.6692873815687 0.0241991058 0.0241937451 0.0241474696 0.024062885 0.0239476785 0.0238137767
3369.3924622832651 0.0236740019 0.0235390309 0.0234162696 0.0233104657 0.0232240856 0.0231595635
3370.1156371849615 0.0231198985 0.0231072493 0.0231217165 0.0231591798 0.023211712 0.0232676044
3370.838812086658 0.0233161636 0.0233510565 0.0233730841 0.023390254 0.0234153606 0.0234615933
3371.5619869883544 0.0235361625 0.0236366689 0.0237499028 0.023854766 0.0239266716 0.0239441432
3372.2851618900509 0.0238960739 0.0237839557 0.0236232355 0.0234372169 0.0232551601 0.0231030565
3373.0083367917468 0.0229976065 0.0229441226 0.0229368918 0.0229622871 0.0230033007 0.0230459608
3373.7315116934433 0.023083102 0.0231154263 0.0231500585 0.0231952835 0.0232584104 0.0233400427
3374.4546865951397 0.0234351885 0.0235335398 0.023625508 0.0237043407 0.0237702373 0.0238292832
3375.1778614968362 0.0238916278 0.0239664465 0.0240575261 0.0241607465 0.0242639557 0.0243507884
3375.9010363985326 0.0244027637 0.0244054962 0.0243519098 0.0242426526 0.0240855794 0.0238940082
3376.624211300229 0.023685094 0.0234760717 0.0232842099 0.0231260844 0.0230143759 0.02295883
3377.3473862019255 0.0229635444 0.023026919 0.023140518 0.0232899077 0.0234578513 0.0236242842
3378.0705611036215 0.0237705875 0.0238828398 0.0239520893 0.0239770897 0.0239633992 0.0239239763
3378.7937360053179 0.0238746833 0.0238314178 0.0238067061 0.0238051657 0.0238226671 0.0238458402
3379.5169109070143 0.0238580555 0.0238424446 0.023788156 0.0236945767 0.0235708989 0.0234352592
3380.2400858087108 0.0233075991 0.0232064687 0.023143243 0.0231197942 0.0231298245 0.0231611021
3380.9632607104072 0.0231997222 0.0232327878 0.0232520495 0.0232547764 0.0232440084 0.0232268106
3381.6864356121037 0.0232120603 0.0232081115 0.0232193302 0.0232442543 0.0232752599 0.0233006068
3382.4096105138001 0.0233084727 0.0232910272 0.0232481342 0.0231894124 0.0231310129 0.0230893567
3383.1327854154961 0.023076918 0.0230957866 0.0231375471 0.0231858119 0.0232239794 0.0232417379
3383.8559603171925 0.0232391153 0.0232273005 0.0232220571 0.0232386962 0.0232831258 0.0233492032
3384.579135218889 0.0234199427 0.0234748479 0.0234963223 0.0234767012 0.0234211311 0.023345463
3385.3023101205854 0.0232717991 0.0232187025 0.0231981855 0.0232106633 0.0232467707 0.0232896637
3386.0254850222818 0.0233208481 0.0233255345 0.0232953615 0.0232303422 0.0231387001 0.023034431
3386.7486599239783 0.0229333285 0.0228489451 0.0227904506 0.0227600727 0.0227539614 0.0227644369
3387.4718348256743 0.0227836762 0.0228070375 0.0228343811 0.0228692014 0.0229159687 0.0229770988
3388.1950097273707 0.0230498388 0.023125736 0.0231933612 0.0232418068 0.0232638996 0.0232584458
3388.9181846290671 0.0232305173 0.0231886078 0.0231419858 0.0230976045 0.0230593774 0.0230290499
3389.6413595307636 0.0230068993 0.0229933094 0.0229890123 0.0229949504 0.0230107773 0.0230349898
3390.36453443246 0.0230649672 0.0230981279 0.0231329687 0.0231690351 0.0232059788 0.0232429598
3391.0877093341564 0.0232771486 0.0233041029 0.0233208146 0.0233272463 0.0233292393 0.0233372115
3391.8108842358529 0.0233650785 0.0234247334 0.0235219616 0.0236534998 0.0238073356 0.0239652544
3392.5340591375489 0.0241066981 0.0242149048 0.0242784619 0.0242920928 0.0242562126 0.0241747592
3393.2572340392453 0.0240548998 0.0239058062 0.0237402096 0.0235736277 0.0234211311 0.0232970044
3393.9804089409417 0.0232102089 0.0231621508 0.0231471229 0.0231545661 0.0231730193 0.0231924877
3394.7035838426382 0.0232081469 0.0232189819 0.023227511 0.023236949 0.0232500564 0.0232680254
3395.4267587443346 0.0232917964 0.0233207084 0.0233539231 0.0233896598 0.0234242436 0.0234528501
3396.1499336460311 0.0234709661 0.0234747082 0.023463726 0.0234398395 0.0234067235 0.0233676657
3396.8731085477275 0.0233244505 0.0232763793 0.0232235249 0.0231681615 0.0231170338 0.0230804123
3397.5962834494235 0.0230682865 0.0230858289 0.0231287051 0.0231828764 0.0232278947 0.0232453719
3398.3194583511199 0.0232251678 0.0231707823 0.0230977796 0.02302856 0.0229825489 0.0229677372
3399.0426332528164 0.0229789503 0.0230002273 0.0230145156 0.0230107419 0.0229904447 0.0229662359
3399.7658081545128 0.0229561385 0.0229733959 0.0230201762 0.0230856538 0.0231507923 0.02319731
3400.4889830562092 0.0232158359 0.0232103486 0.0231970306 0.0231971368 0.0232267771 0.0232919361
3401.2121579579057 0.0233851839 0.0234901328 0.0235866755 0.0236582216 0.0236960128 0.0236988459
3401.9353328596017 0.0236701891 0.0236149076 0.0235380866 0.0234440714 0.023338994 0.0232330337
3402.6585077612981 0.0231391899 0.0230717808 0.0230428148 0.0230573155 0.0231125597 0.0231981147
3403.3816826629945 0.0233003963 0.0234050453 0.0235003103 0.023577895 0.0236316323 0.0236557722
3404.104857564691 0.0236450676 0.023594616 0.0235039126 0.0233786795 0.023233138 0.0230883788
3404.8280324663874 0.0229678769 0.0228934046 0.0228783507 0.0229248051 0.0230227616 0.0231541824
3405.5512073680839 0.0232960619 0.0234254319 0.0235252846 0.0235856269 0.0236047618 0.0235882495
3406.2743822697803 0.0235473905 0.0234961826 0.0234478489 0.0234128777 0.0233955346 0.0233941358
3406.9975571714763 0.0234004986 0.0234030522 0.0233914424 0.023358224 0.0233035777 0.023234712
3407.7207320731727 0.023165226 0.0231103599 0.0230828226 0.0230900217 0.0231311526 0.023199128
3408.4439069748692 0.0232819021 0.0233676303 0.0234464854 0.0235124119 0.0235640425 0.0236018579
3409.1670818765656 0.0236271173 0.0236395039 0.0236374401 0.0236191768 0.0235840175 0.0235340297
3409.890256778262 0.0234744288 0.023412738 0.0233572815 0.0233143102 0.0232869014 0.0232746322
3410.6134316799585 0.0232745968 0.0232821126 0.0232927408 0.0233032629 0.0233108494 0.0233125985
3411.3366065816549 0.0233053267 0.0232850835 0.0232486576 0.0231943391 0.0231247563 0.0230462402
3412.0597814833509 0.0229675975 0.0228993781 0.0228500962 0.0228246041 0.0228231717 0.0228426941
3412.7829563850473 0.0228790846 0.022928508 0.0229904447 0.0230668895 0.0231621508 0.0232794899
3413.5061312867438 0.0234196968 0.0235777553 0.0237436742 0.0239021294 0.0240345187 0.0241235457
3414.2293061884402 0.0241557714 0.024124492 0.0240327679 0.0238929577 0.0237255469 0.0235530231
3414.9524810901366 0.0233985055 0.0232780576 0.0231979042 0.0231542867 0.0231349953 0.0231242329
3415.6756559918331 0.0231063757 0.0230716076 0.0230179038 0.022949921 0.0228766054 0.0228077006
3416.3988308935291 0.0227508545 0.0227089562 0.0226815864 0.022666296 0.0226618964 0.0226699263
3417.1220057952255 0.0226956904 0.0227465946 0.0228298064 0.0229486991 0.0231006444 0.0232744925
3417.8451806969219 0.0234523956 0.023612354 0.0237306915 0.0237877369 0.023771286 0.0236781668
3418.5683555986184 0.0235154554 0.0232998021 0.0230552536 0.0228089578 0.0225896072 0.0224238839
3419.2915305003148 0.0223310161 0.0223215632 0.022393845 0.0225340798 0.0227165334 0.0229089838
3420.0147054020113 0.0230812151 0.0232084598 0.0232794564 0.0232981239 0.023280574 0.0232482385
3420.7378803037077 0.0232195407 0.0232046153 0.0232023448 0.0232024845 0.0231923126 0.0231634788
3421.4610552054037 0.0231150761 0.0230554286 0.0229967684 0.0229506902 0.022922745 0.0229111835
3422.1842301071001 0.0229085293 0.02290776 0.0229068529 0.0229110792 0.0229308847 0.0229769591
3422.9074050087966 0.0230542403 0.0231577829 0.0232728831 0.0233797636 0.0234601945 0.0235046819
3423.630579910493 0.0235146862 0.023501534 0.0234810393 0.0234678183 0.0234683082 0.0234805495
3424.3537548121894 0.023495134 0.0235004146 0.0234871935 0.0234529544 0.0234027375 0.0233485736
3425.0769297138859 0.0233057458 0.023287531 0.0233028792 0.023352595 0.0234284047 0.0235136356
3425.8001046155823 0.0235867463 0.0236271173 0.0236183722 0.0235554017 0.0234451555 0.0233068299
3426.5232795172783 0.0231655054 0.023045646 0.022965502 0.0229309183 0.022936333 0.0229679123
3427.2464544189747 0.0230102539 0.0230500828 0.0230801683 0.0230993163 0.0231096949 0.0231136791
3427.9696293206712 0.0231129099 0.0231084377 0.0231028106 0.0231020413 0.0231156014 0.0231537987
3428.6928042223676 0.0232238397 0.0233259536 0.02345201 0.023587795 0.0237165876 0.0238267276
3429.4159791240641 0.0239137188 0.0239812564 0.0240366533 0.0240859296 0.0241290107 0.0241579786
3430.1391540257605 0.0241590291 0.0241187476 0.0240303855 0.0238982085 0.0237364657 0.0235653017
3430.8623289274565 0.0234053247 0.0232702624 0.0231632348 0.0230776872 0.0230013095 0.0229218025
3431.5855038291529 0.0228308886 0.0227276012 0.0226181578 0.0225128625 0.0224224888 0.0223559234
3432.3086787308494 0.0223184936 0.0223117266 0.0223336685 0.0223806221 0.0224486552 0.022533277
3433.0318536325458 0.0226306543 0.0227378309 0.0228525773 0.0229738858 0.0231011342 0.0232338719
3433.7550285342422 0.0233703218 0.0235069208 0.0236364603 0.0237496234 0.0238350239 0.0238809846
3434.4782034359387 0.0238792002 0.0238269717 0.0237299912 0.0236016139 0.0234633423 0.0233408827
3435.2013783376351 0.0232565235 0.0232271254 0.0232569072 0.0233361274 0.0234420784 0.0235439278
3435.9245532393311 0.0236116201 0.0236205403 0.0235603694 0.0234370083 0.0232715551 0.0230939351
3436.6477281410275 0.02293518 0.0228208657 0.0227636695 0.0227609444 0.0227974355 0.0228505861
3437.370903042724 0.0228974223 0.0229207184 0.0229154788 0.022887677 0.0228532758 0.0228305049
3438.0940779444204 0.0228361618 0.0228792597 0.0229592826 0.0230668541 0.02318714 0.0233044177
3438.8172528461168 0.0234051142 0.023480095 0.0235259142 0.0235421788 0.0235317554 0.023498876
3439.5404277478133 0.0234503318 0.0233937148 0.0233383309 0.0232932288 0.0232646335 0.0232536569
3440.2636026495097 0.0232553706 0.0232598446 0.0232544262 0.0232281052 0.0231756754 0.0230995268
3440.9867775512057 0.0230096597 0.0229194611 0.0228443686 0.0227962118 0.0227817558 0.0228026025
3441.7099524529021 0.0228560343 0.0229366831 0.0230366662 0.023147298 0.0232581664 0.0233565457
3442.4331273545986 0.0234308522 0.0234719459 0.0234759673 0.0234469045 0.0233959183 0.0233402178
3443.156302256295 0.0232967604 0.0232807491 0.0232996624 0.0233523156 0.0234284755 0.0235118531
3443.8794771579915 0.0235846117 0.0236304775 0.0236396082 0.0236120392 0.0235567652 0.0234906916
3444.6026520596879 0.023433581 0.0234037507 0.0234112348 0.0234547742 0.0235207714 0.0235882141
3445.3258269613839 0.0236332417 0.0236367751 0.023590453 0.0234981775 0.0233746935 0.0232390463
3446.0490018630803 0.0231107436 0.0230042096 0.0229269359 0.0228813905 0.0228668954 0.0228825081
3446.7721767647768 0.0229271818 0.0229983404 0.0230900217 0.0231898669 0.0232826713 0.0233522803
3447.4953516664732 0.0233871415 0.02338445 0.0233514067 0.0233027395 0.0232554041 0.0232244339
3448.2185265681696 0.0232187025 0.0232391506 0.023279177 0.0233277362 0.0233731195 0.0234041009
3448.9417014698661 0.0234127026 0.0233953595 0.023352176 0.0232888944 0.0232151374 0.023144817
3449.6648763715625 0.0230922587 0.0230691601 0.0230801683 0.0231205281 0.0231757816 0.0232246444
3450.3880512732585 0.0232460722 0.0232248195 0.0231562443 0.0230469033 0.0229146071 0.0227819998
3451.1112261749549 0.0226693321 0.0225928538 0.022559382 0.0225667804 0.0226051398 0.0226598028
3451.8344010766514 0.0227152761 0.0227571037 0.0227766577 0.0227727816 0.0227536131 0.0227346178
3452.5575759783478 0.0227355268 0.022774633 0.0228621457 0.022995336 0.0231577475 0.0233232267
3453.2807508800443 0.0234621521 0.0235497002 0.0235745367 0.0235395208 0.0234609637 0.0233595874
3454.0039257817407 0.0232565589 0.0231639687 0.0230839066 0.0230090301 0.0229285788 0.0228332635
3454.7271006834371 0.022719536 0.0225912482 0.0224576239 0.0223305281 0.0222198255 0.0221317448
3455.4502755851331 0.0220692698 0.022033155 0.0220243353 0.0220459122 0.022102667 0.0221998785
3456.1734504868296 0.0223406106 0.0225229114 0.0227373764 0.0229676664 0.0231932569 0.0233905334
3456.896625388526 0.0235396605 0.0236274675 0.0236504897 0.0236152578 0.0235371422 0.0234374981
3457.6198002902224 0.0233378746 0.0232570134 0.0232070629 0.0231918227 0.0232068524 0.0232413169
3458.3429751919189 0.0232821479 0.0233158134 0.023332946 0.0233305674 0.0233117584 0.0232844204
3459.0661500936153 0.0232581664 0.0232405495 0.0232334882 0.0232325792 0.0232279301 0.0232084952
3459.7893249953113 0.023167707 0.0231065154 0.0230356529 0.022972662 0.0229372755 0.0229426902
3460.5124998970077 0.022991702 0.0230733547 0.0231686514 0.0232545305 0.0233129468 0.0233366862
3461.2356747987042 0.0233303942 0.0233081579 0.0232858881 0.0232777428 0.0232898742 0.0233220365
3461.9588497004006 0.023368679 0.0234233346 0.0234805495 0.0235355329 0.0235821623 0.0236108154
3462.682024602097 0.0236074906 0.0235580243 0.0234526061 0.0232920405 0.0230904408 0.0228744391
3463.4051995037935 0.0226780251 0.022530729 0.0224527735 0.0224481318 0.0225050095 0.0225997288
3464.1283744054899 0.0227036849 0.0227943622 0.0228557549 0.0228841845 0.0228846725 0.022869166
3464.8515493071859 0.0228517726 0.0228456967 0.022860853 0.0229013339 0.0229648724 0.0230419431
3465.5747242088823 0.0231179763 0.0231767241 0.0232032873 0.0231915098 0.0231438726 0.0230738074
3466.2978991105788 0.0229993537 0.0229391269 0.0229051765 0.0228991676 0.0229130704 0.0229327008
3467.0210740122752 0.0229452755 0.0229430404 0.0229272507 0.0229059793 0.0228903312 0.0228893887
3467.7442489139717 0.0229069926 0.0229408741 0.0229858682 0.0230362471 0.0230885893 0.0231418815
3468.4674238156681 0.0231956337 0.0232469104 0.0232893135 0.0233129133 0.0233080871 0.0232706461
3469.1905987173645 0.0232039876 0.0231209118 0.0230389368 0.0229759123 0.0229429696 0.0229406636
3469.9137736190605 0.0229594931 0.0229833182 0.0229978152 0.0229943581 0.022974968 0.0229513533
3470.636948520757 0.0229407698 0.0229582693 0.023011826 0.0230985135 0.0232057702 0.0233136807
3471.3601234224534 0.0234013032 0.0234528854 0.023459984 0.0234228093 0.0233487152 0.023249533
3472.0832983241498 0.0231375825 0.0230232142 0.0229146406 0.0228173397 0.0227350034 0.0226710439
3472.8064732258463 0.022628421 0.0226091873 0.0226137601 0.0226393808 0.0226799455 0.0227269027
3473.5296481275427 0.022771664 0.0228083301 0.0228364766 0.0228617266 0.0228948724 0.0229477212
3474.2528230292387 0.0230280012 0.0231351014 0.0232580267 0.0233775266 0.0234705806 0.0235179029
3474.9759979309351 0.0235115737 0.0234578159 0.0233752877 0.0232892446 0.0232243296 0.0231951084
3475.6991728326316 0.0232039876 0.023241248 0.0232912712 0.0233390294 0.023376232 0.0234030876
3476.422347734328 0.0234263763 0.0234529898 0.0234844312 0.0235135667 0.0235259142 0.0235062912
3477.1455226360245 0.0234463457 0.023350602 0.0232379977 0.023138456 0.023083033 0.0230920836
3477.8686975377209 0.0231696647 0.0232998375 0.0234523956 0.0235907678 0.0236852691 0.023721382
3478.5918724394173 0.0237028357 0.0236477256 0.0235817432 0.0235279072 0.0234979317 0.0234896429
3479.3150473411133 0.0234884527 0.0234753378 0.0234327763 0.0233522449 0.0232372973 0.0231020413
3480.0382222428098 0.0229663756 0.0228487346 0.0227622725 0.0227116458 0.0226924084 0.022695167
3480.7613971445062 0.0227093752 0.022727007 0.0227434523 0.0227570701 0.0227676146 0.0227737594
3481.4845720462026 0.0227736551 0.0227659382 0.0227525309 0.0227402393 0.0227422304 0.0227742139
3482.2077469478991 0.0228482466 0.0229679458 0.0231228694 0.0232907124 0.0234395601 0.023538366
3482.9309218495955 0.0235667713 0.0235185325 0.0234052893 0.0232515596 0.0230901614 0.0229506548
3483.6540967512919 0.0228529256 0.0228045229 0.0228005778 0.0228279904 0.0228714366 0.0229196716
3484.3772716529879 0.0229665153 0.0230119303 0.0230581891 0.0231078435 0.0231608227 0.0232137386
3485.1004465546844 0.0232601948 0.0232931245 0.0233071093 0.0232991036 0.0232692827 0.0232205205
3485.8236214563808 0.0231569074 0.0230821595 0.022998549 0.0229068175 0.0228067935 0.0226995312
3486.5467963580772 0.0225903746 0.0224889237 0.022410173 0.0223719012 0.0223882627 0.0224669389
3487.2699712597737 0.0226032548 0.0227813367 0.0229745489 0.0231535528 0.0232949071 0.023384938
3487.9931461614701 0.0234239977 0.0234238934 0.0234028772 0.023377981 0.0233587846 0.0233475603
3488.7163210631661 0.023339659 0.0233289953 0.023311479 0.023287531 0.0232606493 0.0232355502
3489.4394959648625 0.023214858 0.023197975 0.0231823511 0.0231661703 0.0231501274 0.0231389459
3490.162670866559 0.0231379662 0.0231503025 0.0231721811 0.0231924877 0.0231937114 0.0231581666
3490.8858457682554 0.0230763238 0.0229505152 0.0227975044 0.0226438846 0.0225215852 0.0224553905
3491.6090206699519 0.022458775 0.0225291587 0.0226507261 0.0227982737 0.0229440536 0.0230663661
3492.3321955716483 0.0231507923 0.0231947247 0.0232034978 0.0231894813 0.0231666584 0.0231460389
3493.0553704733447 0.0231347159 0.0231331792 0.0231365692 0.0231375117 0.0231290553 0.0231074244
3493.7785453750407 0.0230738074 0.0230337307 0.0229939371 0.0229610298 0.0229378697 0.0229238272
3494.5017202767372 0.0229165275 0.0229144674 0.0229204744 0.0229410492 0.022984121 0.023055464
3495.2248951784336 0.0231528897 0.0232652985 0.0233729444 0.0234533399 0.0234906226 0.0234796051
3495.94807008013 0.0234306771 0.0233659875 0.0233145915 0.0233011302 0.0233372469 0.0234177392
3496.6712449818265 0.0235216469 0.0236192457 0.0236812104 0.0236888733 0.0236398187 0.0235463064
3497.3944198835229 0.0234301891 0.0233156737 0.0232210793 0.0231524706 0.0231035445 0.0230594128
3498.1175947852194 0.02300358 0.0229250155 0.0228228215 0.0227075946 0.0225983318 0.0225148164
3498.8407696869153 0.0224694181 0.0224631019 0.0224844571 0.0225132108 0.0225279368 0.0225147456
3499.5639445886118 0.0224715807 0.0224099625 0.0223485976 0.0223072283 0.0222983342 0.0223228894
3500.2871194903082 0.0223699827 0.0224232562 0.0224685445 0.0224994607 0.0225208532 0.0225459449
3501.0102943920047 0.0225912482 0.0226677973 0.0227756444 0.0229014382 0.0230226219 0.0231140628
3501.7334692937011 0.023153659 0.0231312215 0.0230498388 0.0229251552 0.022779068 0.0226371121
3502.4566441953975 0.0225219354 0.0224495977 0.0224290118 0.0224612523 0.0225405004 0.0226544961
3503.1798190970935 0.022786295 0.0229175761 0.0230295043 0.0231067948 0.0231400635 0.0231277626
3503.90299399879 0.0230764989 0.0229994934 0.0229157247 0.0228452422 0.0228048377 0.0228054672
3504.6261689004864 0.0228481758 0.0229239333 0.0230151098 0.0231013782 0.0231632683 0.0231872108
3505.3493438021828 0.0231697354 0.0231171027 0.0230436884 0.0229675975 0.0229079705 0.0228796788
3506.0725187038793 0.022890646 0.0229425505 0.0230301674 0.0231446065 0.0232736524 0.0234048702
3506.7956936055757 0.0235274527 0.0236324705 0.0237149075 0.0237733163 0.0238092262 0.0238260627
3507.5188685072721 0.0238272529 0.0238150712 0.0237894505 0.0237495191 0.0236937031 0.023623094
3508.2420434089681 0.0235415138 0.0234567318 0.0233775266 0.0233131927 0.0232694931 0.0232481696
3508.9652183106646 0.0232460722 0.0232573971 0.0232743863 0.0232892446 0.0232956074 0.0232883357
3509.688393212361 0.0232640039 0.023221219 0.0231612772 0.0230892878 0.0230133981 0.0229453798
3510.4115681140574 0.0228967573 0.0228770599 0.0228905417 0.0229358096 0.0230055377 0.0230893921
3511.1347430157539 0.023176549 0.0232586563 0.0233297981 0.0233861972 0.023424523 0.0234402958
3511.8579179174503 0.0234283693 0.0233848691 0.0233086124 0.0232035331 0.02307849 0.0229474418
3512.5810928191468 0.0228241142 0.0227210373 0.0226468518 0.0226048604 0.0225946326 0.0226124339
3513.3042677208427 0.0226534493 0.0227123089 0.0227822457 0.0228559636 0.022924317 0.0229778681
3514.0274426225392 0.0230080876 0.0230084714 0.0229778327 0.022919707 0.022844404 0.0227662865
3514.7506175242356 0.0227023941 0.0226702746 0.0226832628 0.0227472223 0.0228588283 0.0230050478
3515.4737924259321 0.0231637936 0.0233084727 0.0234155003 0.0234674346 0.023458831 0.0233959537
3516.1969673276285 0.023295328 0.0231782272 0.0230645835 0.0229705311 0.022904966 0.0228703879
3516.9201422293249 0.0228644516 0.0228808653 0.0229113586 0.0229438432 0.0229642428 0.0229574665
3517.6433171310209 0.022910241 0.0228161868 0.0226786882 0.0225125831 0.0223398767 0.0221856162
3518.3664920327174 0.0220712554 0.0220070463 0.0219928939 0.0220181309 0.0220688861 0.0221316405
3519.0896669344138 0.0221987981 0.0222682673 0.0223409943 0.0224173591 0.022494087 0.022563953
3519.8128418361102 0.0226190314 0.0226539373 0.0226693321 0.0226724744 0.0226748139 0.0226883944
3520.5360167378067 0.0227206871 0.0227725375 0.0228380132 0.0229082145 0.0229736064 0.0230278615
3521.2591916395031 0.0230696853 0.023101937 0.0231298245 0.0231591798 0.0231951084 0.0232398491
3521.9823665411996 0.0232934747 0.0233516861 0.0234053601 0.0234418344 0.0234447718 0.0233999398
3522.7055414428955 0.0233001858 0.0231498145 0.0229670033 0.0227812324 0.0226271302 0.0225326493
3523.428716344592 0.0225127917 0.0225642323 0.0226675533 0.0227931049 0.0229099616 0.0229978506
3524.1518912462884 0.0230496284 0.0230743326 0.0230905805 0.0231202841 0.0231785066 0.0232687593
3524.8750661479849 0.0233822819 0.0235006958 0.0236028731 0.0236693844 0.0236891545 0.0236597974
3525.5982410496813 0.0235876199 0.0234835576 0.0233595539 0.0232263915 0.0230908599 0.0229582004
3526.3214159513777 0.0228325315 0.0227189418 0.0226239525 0.0225546006 0.0225169454 0.0225124788
3527.0445908530742 0.0225365926 0.0225790665 0.0226237085 0.0226534139 0.0226540435 0.0226172861
3527.7677657547702 0.0225438159 0.0224425849 0.0223308075 0.022228336 0.0221559778 0.0221308041
3528.4909406564666 0.0221617669 0.0222491901 0.0223827511 0.022545876 0.0227159038 0.0228711925
3529.214115558163 0.0229955446 0.0230803415 0.0231267139 0.0231418815 0.0231372323 0.0231230445
3529.9372904598595 0.0231059212 0.0230888333 0.0230710134 0.0230508167 0.0230273735 0.0230027772
3530.6604653615559 0.0229804181 0.0229639634 0.0229543932 0.0229492579 0.0229421668 0.0229264479
3531.3836402632523 0.0228975266 0.0228569414 0.0228119958 0.0227750167 0.0227588154 0.0227705482
3532.1068151649483 0.0228088181 0.0228610989 0.0229085982 0.0229286831 0.0229037441 0.022827711
3532.8299900666448 0.022707805 0.0225630123 0.0224194527 0.022304507 0.0222369842 0.022225162
3533.5531649683412 0.0222650245 0.0223437138 0.0224440508 0.0225496441 0.0226496086 0.022738738
3534.2763398700376 0.0228160471 0.0228829272 0.0229401402 0.0229871962 0.0230242629 0.0230521094
3534.9995147717341 0.0230761487 0.0231042784 0.0231467728 0.023211712 0.0233022496 0.0234133322
3535.7226896734305 0.0235341694 0.0236490201 0.0237409435 0.0237971507 0.023809962 0.023777727
3536.445864575127 0.0237035006 0.0235933568 0.0234562773 0.0233028084 0.0231468081 0.023004245
3537.1690394768229 0.02289089 0.0228198189 0.0227969456 0.0228184573 0.0228720307 0.0229405593
3537.8922143785194 0.0230082963 0.0230645835 0.023106236 0.0231360793 0.0231561735 0.0231636539
3538.6153892802158 0.0231490452 0.0230975002 0.0229977109 0.0228476878 0.0226611998 0.022464497
3539.3385641819123 0.0222911835 0.0221707616 0.022116404 0.0221229587 0.0221684258 0.0222240109
3540.0617390836087 0.0222650245 0.0222802665 0.0222751386 0.0222675018 0.0222779289 0.0223198198
3540.7849139853051 0.0223945081 0.0224899705 0.022586152 0.0226614084 0.0227007866 0.0226983093
3541.5080888870011 0.0226568356 0.0225857683 0.0224977173 0.0224062651 0.0223238654 0.0222622342
3542.2312637886976 0.0222299397 0.022230776 0.0222612582 0.0223111343 0.0223663896 0.0224129986
3542.954438690394 0.0224442948 0.0224639047 0.0224851891 0.0225245878 0.0225937944 0.0226922333
3543.6776135920904 0.0228054319 0.0229091235 0.0229777284 0.0229969416 0.0229698326 0.0229175407
3544.4007884937869 0.0228700042 0.0228571519 0.022896478 0.0229868107 0.023109626 0.023236949
3545.1239633954833 0.0233432949 0.0234130882 0.0234461706 0.0234538298 0.0234517306 0.0234519057
3545.8471382971798 0.0234582704 0.023467714 0.02347303 0.0234689377 0.0234527793 0.0234269369
3546.5703131988757 0.0233959537 0.0233647637 0.0233363379 0.0233116187 0.0232901536 0.0232719053
3547.2934881005722 0.0232569072 0.0232445691 0.0232325438 0.0232164655 0.0231907405 0.0231529232
3548.0166630022686 0.0231041741 0.0230527744 0.0230112672 0.0229929592 0.0230054315 0.023046799
3548.7398379039651 0.0231027752 0.0231525041 0.0231722854 0.0231432077 0.0230572801 0.0229177158
3549.4630128056615 0.0227383543 0.0225370117 0.0223331805 0.0221432503 0.0219782218 0.0218464229
3550.1861877073579 0.0217524953 0.0216991995 0.0216864869 0.0217107981 0.0217647571 0.0218364932
3550.9093626090544 0.0219126306 0.0219816361 0.0220354553 0.0220731031 0.0220989026 0.0221230295
3551.6325375107504 0.0221562572 0.0222093295 0.0222893693 0.0223993566 0.022537291 0.0226969812
3552.3557124124468 0.0228696894 0.0230441783 0.0232080407 0.023349693 0.0234583411 0.0235262644
3553.0788873141432 0.0235504694 0.0235333648 0.0234831721 0.0234117601 0.0233343095 0.0232638642
3553.8020622158397 0.023209719 0.0231762361 0.0231618714 0.0231617317 0.0231682658 0.0231748726
3554.5252371175361 0.0231753625 0.0231652968 0.0231417753 0.0231028106 0.0230472535 0.0229752827
3555.2484120192325 0.0228887592 0.0227922313 0.022691885 0.0225957856 0.022512164 0.0224462133
3555.9715869209285 0.0224009268 0.0223745517 0.0223624818 0.0223590638 0.0223600045 0.022364052
3556.694761822625 0.0223736111 0.0223931111 0.0224259775 0.022472173 0.0225270651 0.0225809161
3557.4179367243214 0.0226219632 0.0226401147 0.0226302017 0.0225933418 0.0225370117 0.0224718954
3558.1411116260178 0.0224091951 0.022357842 0.022323098 0.0223077852 0.0223142747 0.0223461557
3558.8642865277143 0.0224084631 0.0225063004 0.0226414762 0.0228098314 0.0229984447 0.0231854971
3559.5874614294107 0.0233451128 0.0234507862 0.0234811082 0.0234271102 0.0232927408 0.0230966266
3560.3106363311072 0.0228648707 0.0226287693 0.0224174298 0.0222513173 0.0221432168 0.0220946837
3561.0338112328031 0.0220981352 0.022137288 0.0221902896 0.0222342294 0.0222472027 0.0222158507
3561.7569861344996 0.0221373588 0.0220217202 0.0218889341 0.0217657331 0.0216802526 0.0216524228
3562.480161036196 0.0216911547 0.0217903983 0.0219329838 0.0220921393 0.0222401936 0.0223549809
3563.2033359378925 0.0224224534 0.0224403162 0.0224162769 0.0223657265 0.0223060772 0.0222513173
3563.9265108395889 0.0222099572 0.0221824795 0.0221642423 0.0221478194 0.0221275259 0.0221026335
3564.6496857412853 0.0220781583 0.0220639706 0.0220732093 0.0221178681 0.0222046915 0.0223337021
3565.3728606429818 0.0224961471 0.022677118 0.0228573959 0.0230186731 0.023148695 0.0232417379
3566.0960355446778 0.0232993476 0.0233259182 0.0233263019 0.0233009215 0.0232462455 0.0231560692
3566.8192104463742 0.0230264999 0.0228592474 0.0226649344 0.0224628579 0.0222792551 0.0221461803
3567.5423853480706 0.0220930446 0.0221440885 0.0223086923 0.0225747731 0.0229050368 0.0232441835
3568.2655602497671 0.0235381909 0.0237447582 0.023846155 0.0238473453 0.0237683821 0.0236351993
3568.9887351514635 0.0234718751 0.0232998729 0.0231340881 0.0229847152 0.0228593163 0.0227625519
3569.71191005316 0.0226979945 0.0226665754 0.022666052 0.0226901043 0.0227276012 0.0227644369
3570.4350849548559 0.0227845497 0.0227730256 0.02271978 0.0226202533 0.0224775821 0.0223009139
3571.1582598565524 0.022106329 0.0219136421 0.0217426717 0.0216123033 0.0215348601 0.0215143189
3571.8814347582488 0.0215455499 0.0216163434 0.0217110422 0.0218154825 0.0219214819 0.0220277868
3572.6046096599453 0.0221381597 0.0222563054 0.0223800652 0.0224977862 0.0225908291 0.0226370078
3573.3277845616417 0.0226196945 0.0225365218 0.0224030204 0.0222503077 0.0221155323 0.0220342707
3574.0509594633381 0.0220269151 0.0220939871 0.0222152229 0.0223586094 0.0224897955 0.0225811247
3574.7741343650346 0.0226207059 0.0226129219 0.0225750878 0.0225293338 0.0224967748 0.0224917494
3575.4973092667306 0.0225182008 0.0225700624 0.0226331335 0.0226890929 0.0227185581 0.0227068625
3576.220484168427 0.0226482488 0.0225495044 0.022430025 0.0223174486 0.0222435761 0.0222328696
3576.9436590701234 0.0222942866 0.0224168003 0.0225710385 0.0227178596 0.0228175148 0.022845313
3577.6668339718199 0.0227969456 0.0226908382 0.0225605331 0.0224470869 0.0223883316 0.0224063694
3578.3900088735163 0.0225053597 0.0226689484 0.0228676293 0.023061404 0.0232110117 0.0232868679
3579.1131837752127 0.0232721847 0.0231684074 0.0229939036 0.0227817912 0.0225706901 0.0223957635
3579.8363586769092 0.0222822893 0.0222366713 0.0222470984 0.0222851839 0.0223180763 0.0223154947
3580.5595335786052 0.0222598631 0.0221503284 0.0220021307 0.0218409877 0.0216930006 0.0215799529
3581.2827084803016 0.0215120893 0.0214885548 0.0215007048 0.0215381328 0.0215944033 0.0216690358
3582.005883381998 0.0217683464 0.0218987614 0.0220631678 0.022255538 0.0224606246 0.0226551946
3582.7290582836945 0.0228165705 0.0229280554 0.0229845047 0.0229932051 0.0229703914 0.0229351111
3583.4522331853909 0.0229004249 0.0228701793 0.022838572 0.0227937326 0.0227252617 0.022629153
3584.1754080870874 0.0225107688 0.0223832745 0.0222624093 0.0221599173 0.0220810175 0.0220228713
3584.8985829887833 0.0219780467 0.0219394304 0.0219047554 0.0218779221 0.0218669455 0.0218782015
3585.6217578904798 0.0219131187 0.0219656043 0.0220250674 0.0220800061 0.0221241787 0.0221597794
3586.3449327921762 0.0221967064 0.0222474467 0.0223184936 0.022405846 0.022495484 0.0225710385
3587.0681076938727 0.0226207767 0.0226429775 0.0226444788 0.0226366594 0.0226290841 0.0226257686
3587.7912825955691 0.0226233248 0.0226144586 0.0225900263 0.022545632 0.0224821884 0.0224066488
3588.5144574972655 0.022327425 0.0222501326 0.022174459 0.0220975075 0.0220174678 0.0219385941
3589.237632398962 0.0218706056 0.0218263529 0.0218176078 0.0218509883 0.0219262559 0.0220365357
3589.960807300658 0.0221716333 0.0223221909 0.0224803034 0.022640219 0.0227947105 0.0229317229
3590.6839822023544 0.023033347 0.0230798889 0.0230550803 0.0229551271 0.0227919873 0.0225925744
3591.4071571040508 0.0223891344 0.0222133398 0.0220853053 0.022010671 0.0219823681 0.0219877362
3592.1303320057473 0.0220162142 0.0220638663 0.0221340116 0.0222327653 0.0223627966 0.0225176774
3592.8535069074437 0.022681307 0.0228306446 0.0229451358 0.0230129436 0.0230342206 0.0230194423
3593.5766818091402 0.0229837373 0.0229408741 0.022899203 0.022863159 0.0228345916 0.0228159428
3594.2998567108366 0.0228102505 0.0228206571 0.0228469186 0.0228833463 0.0229190085 0.0229413975
3595.0230316125326 0.0229397919 0.0229108687 0.0228594225 0.0227967016 0.0227338858 0.0226772223
3595.746206514229 0.0226258021 0.0225733425 0.0225133151 0.0224436317 0.022369111 0.0223004259
3596.4693814159255 0.0222500619 0.0222253017 0.022226382 0.0222459827 0.0222736038 0.0223004967
3597.1925563176219 0.0223250519 0.0223535169 0.0223981701 0.0224710926 0.0225785077 0.0227153469
3597.9157312193183 0.0228663012 0.0230094846 0.0231224857 0.023190774 0.0232101735 0.0231864061
3598.6389061210148 0.0231308378 0.0230550803 0.0229683667 0.022874929 0.0227768328 0.0226760004
3599.3620810227108 0.0225757863 0.0224819444 0.0224007871 0.0223368779 0.0222905558 0.0222578049
3600.0852559244072 0.022232905 0.0222103763 0.0221881624 0.0221691933 0.0221602321 0.0221672412
3600.8084308261036 0.022192277 0.02222858 0.0222619213 0.0222729761 0.0222436115 0.0221652184
3601.5316057278001 0.0220428444 0.0218953807 0.0217504408 0.0216388069 0.021587057 0.0216077417
3602.2547806294965 0.0216983631 0.0218388624 0.0219992734 0.0221444722 0.0222466458 0.0222920906
3602.9779555311929 0.0222853925 0.0222461224 0.0222017616 0.0221792012 0.0221940205 0.0222462956
3603.7011304328894 0.0223209709 0.0223949254 0.0224432833 0.0224475041 0.0224018339 0.0223136805
3604.4243053345854 0.0222001225 0.0220805984 0.0219709016 0.0218771212 0.0217965655 0.0217205174
3605.1474802362818 0.0216418002 0.021559583 0.0214828793 0.0214273892 0.0214094967 0.0214408264
3605.8706551379782 0.021521803 0.0216418002 0.0217798427 0.0219147559 0.0220292844 0.0221160557
3606.5938300396747 0.0221780147 0.0222248137 0.0222669076 0.0223086923 0.0223474111 0.0223755632
3607.3170049413711 0.0223867632 0.0223808326 0.0223661456 0.0223555751 0.022364052 0.0224019382
3608.0401798430676 0.0224723835 0.0225713532 0.02269 0.0228177235 0.0229453444 0.0230666101
3608.763354744764 0.0231761299 0.0232658926 0.0233232956 0.0233326666 0.023281483 0.0231685806
3609.48652964646 0.0230089612 0.0228297021 0.0226604305 0.0225283559 0.0224519353 0.0224394798
3610.2097045481564 0.0224894118 0.0225906186 0.022725191 0.0228685029 0.0229946021 0.0230802372
3610.9328794498529 0.0231069699 0.0230650026 0.0229548477 0.0227883551 0.0225871634 0.0223816335
3611.6560543515493 0.0222069938 0.0220957994 0.0220732782 0.0221513063 0.0223227497 0.0225587189
3612.3792292532457 0.0228109136 0.0230260454 0.0231575724 0.0231839586 0.0231122803 0.0229729768
3613.1024041549422 0.0228050817 0.0226419643 0.022507837 0.022413278 0.0223570056 0.0223304946
3613.8255790566382 0.0223229248 0.0223257504 0.0223348532 0.0223512147 0.0223782845 0.0224184413
3614.5487539583346 0.0224704295 0.0225286707 0.0225850698 0.0226332732 0.0226699263 0.0226961095
3615.271928860031 0.0227150321 0.0227299407 0.0227420907 0.0227495972 0.0227494929 0.0227393322
3615.9951037617275 0.0227183495 0.022688359 0.0226518791 0.0226109326 0.0225647558 0.0225107335
3616.7182786634239 0.0224457253 0.022369355 0.0222861599 0.0222067498 0.0221465286 0.0221194383
3617.4414535651204 0.0221336633 0.0221840478 0.0222532358 0.0223124251 0.0223331451 0.0222967993
3618.1646284668168 0.0221987627 0.0220502708 0.0218723826 0.021694636 0.021548301 0.0214623045
3618.8878033685128 0.0214616079 0.0215600356 0.0217559095 0.0220253468 0.0223240759 0.0225929916
3619.6109782702092 0.0227762386 0.0228456259 0.022807667 0.0226976797 0.0225582998 0.0224263966
3620.3341531719057 0.0223237611 0.0222561657 0.0222203843 0.0222087372 0.0222153272 0.0222376119
3621.0573280736021 0.0222748592 0.0223250519 0.0223795064 0.0224226974 0.0224373173 0.0224082526
3621.7805029752985 0.0223324131 0.0222200714 0.0220947526 0.0219841804 0.0219138507 0.0218981691
3622.503677876995 0.0219357014 0.0220120996 0.0221058056 0.0221979953 0.0222779643 0.0223439932
3623.2268527786914 0.0223998111 0.0224489011 0.0224898644 0.0225150604 0.0225136653 0.0224773735
3623.9500276803874 0.0224051829 0.0223057978 0.0221951716 0.0220918246 0.0220125876 0.0219673123
3624.6732025820838 0.0219584238 0.0219804868 0.0220229067 0.0220705587 0.0221058056 0.0221122205
3625.3963774837803 0.0220760331 0.0219919533 0.021865936 0.0217163023 0.0215721522 0.0214635227
3626.1195523854767 0.0214159712 0.0214394331 0.0215241369 0.0216416623 0.0217552483 0.0218328685
3626.8427272871731 0.0218541585 0.0218175743 0.0217363313 0.0216334071 0.0215311348 0.0214477535
3627.5659021888696 0.0213943217 0.0213764664 0.0213996824 0.0214715656 0.0216035973 0.0218046829
3628.2890770905656 0.0220729653 0.022390252 0.0227266923 0.0230545551 0.0233580843 0.0236357246
3629.012251992262 0.0238932017 0.0241372064 0.0243642461 0.024557393 0.0246889275 0.0247295443
3629.7354268939584 0.0246658158 0.0245031901 0.0242631156 0.0239718724 0.023654338 0.0233330503
3630.4586017956549 0.0230253469 0.0227475017 0.02251314 0.0223305281 0.0222017616 0.0221219826
3631.1817766973513 0.0220816806 0.0220691655 0.02207537 0.0220961832 0.0221323371 0.022187395
3631.9049515990478 0.0222647805 0.0223641209 0.022479292 0.0225987174 0.0227064081 0.0227874126
3632.6281265007442 0.0228294916 0.02282607 0.022777915 0.0226933155 0.0225871988 0.0224776175
3633.3513014024402 0.0223852284 0.0223282967 0.0223175883 0.0223533418 0.0224234294 0.0225066505
3634.0744763041366 0.0225777756 0.0226170756 0.0226157848 0.0225764494 0.0225110129 0.0224350132
3634.7976512058331 0.0223638769 0.0223075077 0.022270117 0.0222509354 0.022246819 0.0222549457
3635.5208261075295 0.022273954 0.0223038439 0.0223433655 0.0223891009 0.0224347692 0.0224722084
3636.2440010092259 0.0224947855 0.0224997066 0.0224886443 0.0224666949 0.0224390961 0.0224091597
3636.9671759109224 0.0223760866 0.0223364588 0.0222864747 0.0222248137 0.0221542343 0.0220809486
3637.6903508126188 0.0220126938 0.0219549742 0.0219100527 0.0218767375 0.0218521729 0.0218348894
3638.4135257143148 0.0218261443 0.0218291059 0.0218472239 0.0218811631 0.0219279639 0.0219808705
3639.1367006160112 0.0220328756 0.022077566 0.0221122894 0.0221357904 0.0221474357 0.0221445058
3639.8598755177077 0.0221211463 0.0220703147 0.0219879802 0.0218761805 0.0217461213 0.0216143578
3640.5830504194041 0.0215000082 0.0214185137 0.0213754214 0.0213665459 0.0213796683 0.021401735
3641.3062253211006 0.0214224122 0.0214396417 0.0214583706 0.0214873012 0.0215328056 0.0215946138
3642.029400222797 0.0216642302 0.0217272062 0.0217684507 0.0217768457 0.0217500571 0.0216950551
3642.752575124493 0.021627035 0.021563204 0.0215200633 0.0215089209 0.0215335377 0.0215901565
3643.4757500261894 0.0216692463 0.0217576157 0.0218414403 0.0219092853 0.0219547302 0.0219772458
3644.1989249278859 0.0219819844 0.021976931 0.0219711456 0.0219706576 0.0219756421 0.0219807308
3644.9220998295823 0.0219760947 0.0219502002 0.021893464 0.0218014084 0.0216767695 0.0215293597
3645.6452747312787 0.0213736817 0.0212255735 0.0211000908 0.0210064296 0.0209471751 0.0209171344
3646.3684496329752 0.0209051389 0.0208963417 0.020877637 0.0208427683 0.0207949039 0.0207472164
3647.0916245346716 0.0207171533 0.0207211152 0.0207650457 0.0208413433 0.0209312849 0.0210133158
3647.8147994363676 0.0210732743 0.0211062822 0.021118667 0.0211241972 0.0211412422 0.0211885553
3648.537974338064 0.0212836824 0.0214391202 0.0216583796 0.021928696 0.022215154 0.022466382
3649.2611492397605 0.0226251744 0.0226577073 0.0225685965 0.022399392 0.0222092606 0.0220527109
3649.9843241414569 0.0219743177 0.0219975654 0.0221234113 0.0223278422 0.0225663278 0.0227822792
3650.7074990431533 0.0229227096 0.022959318 0.0228934046 0.022752041 0.0225712135 0.0223835874
3651.4306739448498 0.0222103409 0.0220595431 0.0219327044 0.0218289327 0.0217480361 0.0216904916
3652.1538488465462 0.0216547213 0.0216359161 0.0216256771 0.0216140449 0.0215944033 0.0215650145
3652.8770237482422 0.0215301942 0.0214967355 0.0214703474 0.0214510951 0.0214333758 0.0214085225
3653.6001986499386 0.0213718712 0.0213255472 0.0212807599 0.0212528873 0.0212553926 0.0212926622
3654.3233735516351 0.0213564187 0.0214284342 0.0214869883 0.0215179399 0.0215191226 0.0215036646
3655.0465484533315 0.0214935672 0.0215142146 0.0215845145 0.0217121914 0.021894021 0.0221191589
3655.769723355028 0.0223715864 0.0226308983 0.0228728689 0.0230670292 0.0231808834 0.0231922772
3656.4928982567244 0.0230977796 0.0229163524 0.0226819012 0.0224325713 0.0222016573 0.0220094509
3657.2160731584204 0.0218646117 0.0217628423 0.0216913968 0.0216328856 0.0215731617 0.0215054043
3657.9392480601168 0.0214314274 0.0213593058 0.0212991349 0.0212584548 0.021239249 0.0212383084
3658.6624229618133 0.0212497562 0.0212675724 0.0212887991 0.0213129148 0.0213416256 0.0213775449
3659.3855978635097 0.0214217156 0.0214733407 0.0215288028 0.021581728 0.0216238648 0.0216451436
3660.1087727652061 0.0216362644 0.0215910263 0.0215088874 0.0213958174 0.0212642308 0.021130424
3660.8319476669026 0.0210090037 0.0209100749 0.0208368246 0.020785518 0.0207486767 0.0207182318
3661.555122568599 0.0206901524 0.0206651315 0.0206473414 0.0206418857 0.0206516851 0.020675974
3662.278297470295 0.0207112804 0.0207526386 0.0207961891 0.0208402667 0.0208844859 0.0209283642
3663.0014723719914 0.0209697429 0.0210037511 0.0210252441 0.0210295208 0.0210151244 0.020983791
3663.7246472736879 0.0209401865 0.020889597 0.0208362676 0.0207824241 0.0207291096 0.020676842
3664.4478221753843 0.0206277091 0.0205850434 0.0205523167 0.0205327235 0.0205270275 0.0205343217
3665.1709970770808 0.0205519702 0.0205780249 0.0206107181 0.0206483491 0.0206889007 0.0207269192
3665.8941719787772 0.0207551755 0.0207651164 0.0207506567 0.0207107589 0.0206509884 0.0205818824
3666.6173468804736 0.0205165707 0.0204646774 0.020430224 0.0204104278 0.0203980654 0.0203849729
3667.3405217821696 0.020366326 0.0203429908 0.0203218795 0.0203129221 0.0203260817 0.0203694161
3668.0636966838661 0.0204463731 0.0205557905 0.02069043 0.0208365805 0.0209748894 0.0210805777
3668.7868715855625 0.02113338 0.0211238153 0.0210596398 0.0209623352 0.0208604988 0.0207814872
3669.5100464872589 0.0207424555 0.0207511429 0.0208042879 0.0208931435 0.0210075416 0.0211445466
3670.2332213889554 0.0213098172 0.0215168595 0.0217740238 0.0220695473 0.0223628655 0.0225973558
3670.9563962906518 0.0227271467 0.0227353871 0.0226388928 0.0224735346 0.0222800914 0.0220905691
3671.6795711923478 0.0219246186 0.0217888299 0.021676559 0.0215753559 0.0214710776 0.0213558264
3672.4027460940442 0.0212287046 0.0210964046 0.0209682118 0.0208528861 0.0207538549 0.0206699967
3673.1259209957407 0.0205949452 0.0205202531 0.0204378646 0.0203405954 0.020223422 0.0200850759
3673.8490958974371 0.0199299492 0.0197701268 0.0196262058 0.0195288397 0.0195098128 0.0195979197
3674.5722707991335 0.0198043194 0.0201142617 0.0204818361 0.0208425615 0.0211411379 0.02134897
3675.29544570083 0.0214720517 0.0215389337 0.0215875786 0.0216475129 0.0217318386 0.0218346454
3676.0186206025264 0.0219357014 0.0220116116 0.0220448319 0.0220312718 0.0219777673 0.021896217
3676.7417955042224 0.021799909 0.0217012558 0.0216111541 0.0215373319 0.0214833319 0.0214468129
3677.4649704059188 0.0214199405 0.0213909801 0.0213491097 0.0212893207 0.0212140922 0.0211325809
3678.1881453076153 0.0210557096 0.0209916495 0.0209403597 0.020893909 0.0208384935 0.0207621604
3678.9113202093117 0.0206624903 0.0205511712 0.0204517581 0.0203930642 0.0203979611 0.0204703398
3679.6344951110082 0.0205940772 0.0207374152 0.0208673477 0.0209583361 0.0209999606 0.0209963787
3680.3576700127046 0.020962961 0.0209188033 0.0208806284 0.0208602212 0.0208623763 0.0208865721
3681.080844914401 0.0209296513 0.0209884513 0.0210588053 0.0211352948 0.0212102309 0.0212723389
3681.804019816097 0.0213078 0.0213034842 0.0212489907 0.0211400948 0.0209802091 0.0207813829
3682.5271947177935 0.0205628779 0.0203473661 0.0201581661 0.0200138725 0.0199241564 0.0198869351
3683.2503696194899 0.0198898502 0.0199129507 0.0199344233 0.0199376848 0.0199175999 0.0198820792
3683.9735445211863 0.0198498219 0.0198442731 0.0198862068 0.0199843459 0.020133106 0.0203116722
3684.6967194228828 0.0204922557 0.0206469931 0.0207551401 0.0208086688 0.0208104402 0.0207713377
3685.4198943245792 0.0207041558 0.0206206907 0.0205283817 0.0204301551 0.0203261506 0.0202154033
3686.1430692262752 0.0200980902 0.0199772697 0.0198587719 0.0197508819 0.0196627788 0.01960201
3686.8662441279716 0.019572027 0.0195701551 0.0195876937 0.0196110569 0.0196256172 0.0196221489
3687.5894190296681 0.0195999648 0.019571403 0.0195599645 0.0195965674 0.0197075382 0.0198998395
3688.3125939313645 0.0201491062 0.0204035863 0.0206129421 0.0207496136 0.0208221544 0.0208579265
3689.035768833061 0.0208879635 0.0209311116 0.0209909547 0.0210566483 0.0211090315 0.0211279187
3689.7589437347574 0.0210987348 0.0210194699 0.020902114 0.0207702946 0.0206485223 0.0205587782
3690.4821186364538 0.0205124728 0.0205102153 0.0205447432 0.0206062011 0.0206850786 0.0207735263
3691.2052935381498 0.0208641142 0.0209479406 0.0210155752 0.0210601967 0.0210802648 0.021080995
3691.9284684398463 0.0210723691 0.021065658 0.0210699011 0.0210867357 0.0211107694 0.0211288929
3692.6516433415427 0.0211268403 0.0210923348 0.0210206881 0.0209159516 0.0207886472 0.0206522048
3693.3748182432391 0.0205176827 0.0203929953 0.0202820916 0.0201870427 0.0201097839 0.0200526305
3694.0979931449356 0.0200173426 0.0200028047 0.0200031158 0.0200091191 0.0200102981 0.0200009663
3694.821168046632 0.0199824721 0.0199655071 0.0199645013 0.0199930202 0.0200564824 0.0201493148
3695.5443429483284 0.0202552546 0.0203525741 0.0204241816 0.0204637051 0.0204789881 0.0204873234
3696.2675178500244 0.0205093455 0.0205578059 0.0206313226 0.0207145829 0.0207849964 0.0208232682
3696.9906927517209 0.0208195485 0.0207786355 0.0207162853 0.0206543244 0.0206112396 0.020596683
3697.7138676534173 0.0206093639 0.0206400789 0.0206754878 0.0207041912 0.0207194127 0.0207187869
3698.4370425551137 0.020701481 0.0206673555 0.0206159651 0.0205494687 0.0204749927 0.0204076152
3699.1602174568102 0.0203679577 0.0203771591 0.0204511322 0.0205917843 0.0207857955 0.0210044812
3699.8833923585066 0.0212138835 0.0213839132 0.0214942992 0.0215394218 0.0215258431 0.0214673523
3700.6065672602026 0.021379007 0.0212740097 0.0211632978 0.0210560933 0.0209636912 0.0208997503
3701.329742161899 0.0208767336 0.0209024269 0.020972142 0.0210672915 0.0211580805 0.0212165285
3702.0529170635955 0.0212281831 0.0211958606 0.0211374499 0.0210776217 0.0210408587 0.0210423898
3702.7760919652919 0.0210854132 0.0211597849 0.02124645 0.0213219281 0.0213664062 0.0213706177
3703.4992668669884 0.0213380419 0.0212822575 0.0212203544 0.0211682376 0.0211343896 0.0211187359
3704.2224417686848 0.0211126842 0.0211033262 0.0210775863 0.0210246183 0.0209390391 0.0208217725
3704.9456166703812 0.0206794478 0.0205231719 0.0203666389 0.0202250183 0.0201116931 0.0200366341
3705.6687915720772 0.0200053714 0.0200162325 0.0200617556 0.0201280043 0.0201996788 0.0202613305
3706.3919664737737 0.0203026794 0.020320978 0.0203220192 0.0203176439 0.0203202479 0.0203403514
3707.1151413754701 0.0203806665 0.0204364751 0.0204970147 0.0205488093 0.02058018 0.0205828547
3707.8383162771665 0.0205547493 0.0204987526 0.0204214379 0.0203310121 0.0202351902 0.0201409496
3708.561491178863 0.0200533587 0.0199764017 0.0199141651 0.0198703557 0.0198481586 0.0198493022
3709.2846660805594 0.0198722985 0.019912431 0.0199622475 0.0200141855 0.0200626589 0.0201050658
3710.0078409822559 0.0201417487 0.0201753117 0.0202092249 0.0202469919 0.0202915687 0.0203443449
3710.7310158839518 0.0204051491 0.0204722844 0.0205432847 0.0206171125 0.0206952952 0.0207827725
3711.4541907856483 0.0208875816 0.021017801 0.0211770404 0.0213593058 0.0215441566 0.0217006281
3712.1773656873447 0.0217944402 0.0218052398 0.0217354614 0.0216082633 0.0214561783 0.0213105828
3712.9005405890412 0.0211971477 0.0211310852 0.02111811 0.0211550184 0.0212308634 0.0213293061
3713.6237154907376 0.0214321241 0.0215247981 0.0215986185 0.0216529816 0.0216935221 0.0217289813
3714.346890392434 0.0217656977 0.0218037069 0.0218336359 0.0218391065 0.0218023825 0.0217104498
3715.07006529413 0.0215617754 0.021368565 0.0211555399 0.0209523551 0.0207872912 0.0206821244
3715.7932401958265 0.0206458811 0.020675417 0.02075601 0.0208667554 0.0209838599 0.0210845433
3716.5164150975229 0.0211518519 0.0211738385 0.0211448595 0.0210659355 0.0209449492 0.0207965709
3717.2395899992193 0.0206394177 0.0204959381 0.0203863624 0.0203247964 0.0203169845 0.020358583
3717.9627649009158 0.0204360597 0.0205289721 0.020615479 0.020675661 0.0206949823 0.0206670091
3718.6859398026122 0.0205945969 0.0204893034 0.0203672983 0.0202460904 0.0201398041 0.0200551283
3719.4091147043086 0.0199920144 0.019944692 0.0199061874 0.0198707376 0.0198365394 0.01980602
3720.1322896060046 0.0197845884 0.01977727 0.0197858699 0.0198077187 0.0198363308 0.0198645983
3720.8554645077011 0.0198885668 0.0199098997 0.0199362636 0.0199803226 0.0200528726 0.0201603509
3721.5786394093975 0.0202993117 0.0204576608 0.0206152704 0.0207499266 0.020843951 0.0208877902
3722.3018143110939 0.0208827145 0.0208380073 0.0207671653 0.0206842087 0.0205994267 0.0205209833
3723.0249892127904 0.0204534587 0.0203981344 0.0203539282 0.0203177128 0.0202869512 0.0202613994
3723.7481641144868 0.0202459861 0.0202508122 0.020290494 0.0203784443 0.0205213651 0.0207134001
3724.4713390161828 0.0209352132 0.0211554356 0.0213391557 0.0214600768 0.0215053707 0.0214799214
3725.1945139178792 0.0214020479 0.0212976374 0.0211906433 0.0210974477 0.0210285131 0.0209875461
3725.9176888195757 0.0209755488 0.0209918935 0.0210340433 0.0210944209 0.0211583227 0.0212055687
3726.6408637212721 0.021215206 0.0211739093 0.0210816916 0.0209540594 0.0208154116 0.0206898041
3727.3640386229686 0.0205972381 0.0205471069 0.0205384903 0.0205629468 0.0206083562 0.0206629783
3728.087213524665 0.0207171887 0.0207648035 0.0208016112 0.0208230242 0.0208247975 0.0208024457
3728.8103884263614 0.0207540635 0.0206818804 0.0205929298 0.0204982311 0.0204089694 0.0203352477
3729.5335633280574 0.0202834457 0.0202549417 0.0202478264 0.0202572681 0.0202780981 0.0203047637
3730.2567382297539 0.0203316361 0.0203538258 0.0203656666 0.0203629918 0.0203440674 0.0203106999
3730.9799131314503 0.0202688295 0.0202280041 0.0202000253 0.0201962423 0.020226581 0.0202988256
3731.7030880331467 0.020415986 0.0205745511 0.020760458 0.0209502354 0.0211147703 0.0212299582
3732.4262629348432 0.0212857015 0.0212861896 0.0212463122 0.0211829543 0.0211119875 0.0210435726
3733.1494378365396 0.0209801048 0.0209171344 0.0208448209 0.0207515955 0.0206291676 0.0204786398
3733.8726127382361 0.0203122273 0.0201557353 0.0200414564 0.0200046431 0.0200740751 0.0202628933
3734.595787639932 0.0205621142 0.0209395252 0.0213507451 0.0217477586 0.0220924877 0.022363808
3735.3189625416285 0.0225535538 0.022664411 0.0227038246 0.0226814467 0.0226074085 0.0224927608
3736.0421374433249 0.0223503429 0.0221940558 0.0220383834 0.021895485 0.0217707157 0.0216584839
3736.7653123450214 0.0215421729 0.0214031618 0.0212291572 0.0210221838 0.0207984131 0.0205855984
3737.4884872467178 0.0204153955 0.0203152839 0.0203049015 0.0203887932 0.0205525253 0.0207621958
3738.2116621484142 0.0209720023 0.0211382862 0.0212291572 0.0212353505 0.0211676471 0.0210519191
3738.9348370501102 0.0209160913 0.0207840931 0.0206721164 0.0205880664 0.0205329675 0.0205045529
3739.6580119518067 0.0204990637 0.0205131676 0.020544501 0.0205923747 0.0206557494 0.0207329672
3740.3811868535031 0.0208190959 0.0209032614 0.0209685247 0.0209943615 0.0209583025 0.0208441243
3741.1043617551995 0.0206482448 0.0203827508 0.0200736932 0.0197531357 0.0194517672 0.0191885624
3741.827536656896 0.018969994 0.0187929813 0.018650284 0.0185372997 0.0184544902 0.018406231
3742.5507115585924 0.0183980372 0.0184312239 0.018500302 0.0185942892 0.0187024102 0.018821355
3743.2738864602888 0.0189604405 0.0191417802 0.0193954967 0.0197477601 0.020203948 0.0207361635
3743.9970613619848 0.0212716777 0.0217144918 0.0219808705 0.0220463313 0.0219606906 0.0218183063
3744.7202362636813 0.0217011496 0.0216364376 0.021603981 0.0215629954 0.0214825664 0.0213513374
3745.4434111653777 0.0211810749 0.020997839 0.0208337661 0.0207168758 0.0206632558 0.0206750352
3746.1665860670741 0.0207397789 0.0208359212 0.0209380649 0.0210254174 0.0210862122 0.0211172402
3746.8897609687706 0.0211210661 0.0211023521 0.0210636742 0.0210044123 0.0209217574 0.0208128393
3747.612935870467 0.020676529 0.0205144864 0.0203311499 0.020131927 0.019924121 0.0197171438
3748.3361107721635 0.0195215978 0.0193538535 0.0192365646 0.0191975664 0.0192734171 0.0194990709
3749.0592856738594 0.0198948793 0.0204410609 0.0210626666 0.0216424279 0.0220665149 0.0222786963
3749.7824605755559 0.0222872067 0.0221414734 0.0219022464 0.0216261297 0.0213594101 0.0211335551
3750.5056354772523 0.020969186 0.0208736397 0.0208422486 0.0208601505 0.0209075026 0.0209669247
3751.2288103789488 0.0210274346 0.021089239 0.0211613141 0.0212581418 0.0213909093 0.0215588864
3751.9519852806452 0.0217398163 0.021892 0.0219661966 0.0219275467 0.0217742678 0.0215344429
3752.6751601823416 0.0212498959 0.0209592413 0.0206931755 0.0204740912 0.0203140676 0.0202199854
3753.3983350840376 0.0201915205 0.0202207137 0.0202928893 0.0203885157 0.0204879493 0.0205736831
3754.1215099857341 0.020635318 0.0206697192 0.0206806306 0.0206758697 0.020663986 0.0206526928
3754.8446848874305 0.0206454303 0.0206418503 0.0206370912 0.0206242688 0.0205954313 0.0205450226
3755.5678597891269 0.0204720758 0.0203809459 0.0202815011 0.0201867316 0.0201106183 0.0200643931
3756.2910346908234 0.0200524908 0.020071473 0.0201103743 0.0201546252 0.0201908965 0.0202126261
3757.0142095925198 0.0202221721 0.0202289056 0.0202447008 0.0202806685 0.0203431994 0.0204315446
3757.7373844942163 0.0205376223 0.02064755 0.0207455829 0.020817915 0.0208562929 0.0208613686
3758.4605593959122 0.0208419356 0.0208133254 0.0207914282 0.0207903497 0.0208169408 0.0208693296
3759.1837342976087 0.0209369864 0.0210052114 0.0210602321 0.0210940391 0.0211079866 0.0211118832
3759.9069091993051 0.0211199187 0.0211432595 0.021184694 0.0212379601 0.0212911647 0.0213304553
3760.6300841010016 0.0213456992 0.0213339701 0.0213000048 0.0212547667 0.0212118309 0.0211837199
3761.353259002698 0.0211761352 0.021186851 0.0212052558 0.0212167017 0.021207029 0.0211657677
3762.0764339043944 0.0210893434 0.020981634 0.0208525378 0.0207146872 0.0205815695 0.0204654764
3762.7996088060909 0.0203752853 0.0203162897 0.0202892441 0.020289937 0.0203098319 0.020336289
3763.5227837077869 0.0203577839 0.0203641728 0.0203517415 0.0203240328 0.0202916041 0.0202692114
3764.2459586094833 0.0202703569 0.0203051101 0.0203771256 0.0204843711 0.0206218027 0.0207851361
3764.9691335111797 0.0209729057 0.0211855974 0.0214215759 0.0216711611 0.0219101217 0.0221023187
3765.6923084128762 0.0222055279 0.022186419 0.022036083 0.0217739195 0.0214413479 0.0210853778
3766.4154833145726 0.0207506921 0.0204695743 0.0202587266 0.0201221742 0.0200532209 0.0200392362
3767.1386582162691 0.0200638045 0.0201114845 0.0201688204 0.0202236306 0.0202659126 0.02028789
3767.861833117965 0.0202842429 0.0202543531 0.0202012062 0.020131927 0.0200539492 0.0199746676
3768.5850080196615 0.0199002549 0.0198354982 0.0197881255 0.019769365 0.0197948869 0.0198829807
3769.3081829213579 0.0200485699 0.020295145 0.0206061676 0.0209420975 0.021248294 0.02146798
3770.0313578230543 0.0215669647 0.0215431117 0.0214221328 0.0212421007 0.0210400242 0.02084562
3770.7545327247508 0.0206776764 0.0205478352 0.0204627682 0.0204253271 0.0204341486 0.0204823911
3771.4777076264472 0.0205577705 0.0206432063 0.0207207333 0.0207773857 0.0208071042 0.0208129082
3772.2008825281437 0.0208027232 0.0207851715 0.02076317 0.0207324103 0.0206822287 0.0206015464
3772.9240574298396 0.0204859003 0.0203423314 0.0201887097 0.0200501326 0.0199510064 0.0199056659
3773.6472323315361 0.0199152064 0.0199665148 0.0200389232 0.0201091245 0.020158859 0.0201793034
3774.3704072332325 0.0201694462 0.0201347731 0.0200827159 0.0200215057 0.0199579094 0.0198981743
3775.093582134929 0.0198484696 0.0198136829 0.0197965521 0.01979669 0.0198107697 0.0198334865
3775.8167570366254 0.0198607128 0.0198914111 0.0199278686 0.0199737642 0.0200303886 0.0200935788
3776.5399319383218 0.020152647 0.0201940201 0.0202047117 0.0201795455 0.0201249849 0.0200584251
3777.2631068400183 0.0200037751 0.0199835487 0.0200119298 0.020089969 0.0202052314 0.0203357693
3777.9862817417143 0.0204577316 0.0205515884 0.0206060633 0.0206197184 0.0205995999 0.0205581188
3778.7094566434107 0.0205092765 0.020467421 0.0204448812 0.0204502642 0.0204871856 0.0205518994
3779.4326315451071 0.0206336156 0.0207158327 0.0207830854 0.0208252836 0.0208404046 0.0208334532
3780.1558064468036 0.0208116919 0.02078305 0.020752117 0.0207210109 0.0206906721 0.0206622127
3780.8789813485 0.0206388272 0.020625554 0.0206270143 0.0206453949 0.0206780247 0.0207181964
3781.6021562501965 0.0207558349 0.020781938 0.0207921918 0.0207867008 0.0207701549 0.0207475293
3782.3253311518924 0.0207214281 0.020689318 0.0206455346 0.0205833763 0.020499412 0.0203970242
3783.0485060535889 0.0202864651 0.0201816633 0.020095868 0.0200373624 0.0200066548 0.0199970454
3783.7716809552853 0.0199972522 0.0199971143 0.0199904535 0.019977998 0.0199650563 0.0199601296
3784.4948558569818 0.0199701563 0.0199976694 0.0200400688 0.020090593 0.0201418865 0.0201883633
3785.2180307586782 0.020228073 0.0202629622 0.0202972628 0.0203355253 0.0203802157 0.0204306059
3785.9412056603746 0.0204831902 0.02053269 0.0205742382 0.0206053331 0.0206278823 0.020647062
3786.6643805620711 0.0206694752 0.0207000561 0.0207396746 0.0207839888 0.0208231974 0.0208463501
3787.3875554637671 0.0208451673 0.0208167676 0.02076515 0.0206996035 0.02063087 0.0205670819
3788.1107303654635 0.0205106661 0.020458078 0.0204031002 0.0203402136 0.0202679951 0.0201902017
3788.8339052671599 0.020114366 0.0200480148 0.0199948587 0.0199526362 0.0199146513 0.0198731646
3789.5570801688564 0.0198237766 0.0197676308 0.0197126698 0.0196701642 0.0196508542 0.0196597986
3790.2802550705528 0.0196953695 0.0197494607 0.0198118463 0.0198717434 0.0199225955 0.0199612752
3791.0034299722493 0.0199878514 0.0200025272 0.0200042967 0.0199911464 0.0199615881 0.019915726
3791.7266048739457 0.0198588055 0.0197990835 0.0197478309 0.0197160337 0.019711595 0.0197381563
3792.4497797756417 0.0197944026 0.0198754203 0.0199734177 0.0200790036 0.0201826002 0.0202741418
3793.1729546773381 0.0203443114 0.0203865357 0.0203977879 0.0203803889 0.0203424357 0.0202961862
3793.8961295790346 0.0202548038 0.0202293228 0.0202262681 0.0202458464 0.0202826466 0.0203279555
3794.619304480731 0.0203724019 0.0204075109 0.0204278287 0.0204308145 0.0204170272 0.0203896966
3795.3424793824274 0.0203539282 0.0203174017 0.0202890001 0.020276919 0.0202880967 0.0203260817
3796.0656542841239 0.0203893483 0.0204714853 0.020562809 0.0206528995 0.0207339749 0.0208024103
3796.7888291858198 0.0208585523 0.0209043734 0.0209415071 0.0209703688 0.0209902581 0.0210005865
3797.5120040875163 0.0210000649 0.0209876858 0.0209609102 0.0209160559 0.0208473932 0.020751005
3798.2351789892127 0.0206259023 0.0204777718 0.0203192066 0.0201685075 0.0200443026 0.0199606847
3798.9583538909092 0.0199225601 0.0199243296 0.0199516304 0.0199864283 0.020014463 0.0200288277
3799.6815287926056 0.0200314634 0.0200303197 0.0200353153 0.0200535674 0.0200873315 0.0201353971
3800.404703694302 0.0201969016 0.0202748012 0.0203786884 0.0205239002 0.0207251813 0.0209892504
3801.1278785959985 0.0213036239 0.0216343477 0.021931449 0.0221513752 0.0222744755 0.0223083794
3801.8510534976945 0.0222750343 0.0221960079 0.0220848881 0.021946609 0.0217826292 0.0215965286
3802.5742283993909 0.0213975925 0.0212020893 0.0210295562 0.0208952297 0.0208038371 0.0207467992
3803.2974033010873 0.020706242 0.0206600931 0.0205921307 0.0204966329 0.0203791745 0.0202534851
3804.0205782027838 0.0201361608 0.0200422555 0.0199797675 0.0199490283 0.0199438259 0.019954579
3804.7437531044802 0.0199719612 0.0199891683 0.0200031511 0.0200141855 0.0200246628 0.0200372934
3805.4669280061767 0.0200550947 0.0200800784 0.0201132894 0.020155007 0.0202053711 0.0202640388
3806.1901029078731 0.0203324016 0.0204121657 0.0205067061 0.0206182227 0.0207447484 0.0208772551
3806.9132778095691 0.0209981184 0.0210872218 0.0211293455 0.0211207177 0.0210693795 0.0209891107
3807.6364527112655 0.0208937693 0.02079379 0.020694878 0.0205996707 0.0205091387 0.0204249807
3808.359627612962 0.0203511156 0.0202933755 0.020259317 0.0202542488 0.0202800427 0.0203322265
3809.0828025146584 0.0204015039 0.0204747152 0.0205384903 0.0205825772 0.0206016861 0.0205953624
3809.8059774163548 0.0205669776 0.0205220599 0.0204671081 0.0204078238 0.0203510132 0.0203036871
3810.5291523180513 0.0202730298 0.0202661213 0.0202880632 0.0203407351 0.0204206742 0.0205199756
3811.2523272197473 0.0206273273 0.0207296312 0.020814959 0.0208751 0.0209067035 0.0209106673
3811.9755021214437 0.0208922401 0.0208583772 0.020815447 0.0207661241 0.0207090564 0.0206380282
3812.6986770231401 0.0205455087 0.0204254314 0.0202781688 0.0201125965 0.0199467745 0.0198021699
3813.4218519248366 0.0197009165 0.0196572319 0.0196742211 0.0197419357 0.0198399033 0.0199438259
3814.145026826533 0.0200289302 0.0200770255 0.0200787596 0.0200321227 0.0199412238 0.0198147595
3814.8682017282295 0.0196659695 0.0195127241 0.0193796642 0.0192997772 0.0193084367 0.0194418915
3815.5913766299259 0.0197235923 0.0201499052 0.0206732284 0.0212022625 0.0216336511 0.0218905378
3816.3145515316219 0.0219575875 0.0218709894 0.0216917116 0.0214759167 0.0212618653 0.02107317
3817.0377264333183 0.0209188722 0.0208009854 0.0207174663 0.0206653755 0.0206405297 0.0206379592
3817.7609013350148 0.0206517186 0.020674549 0.020698145 0.0207148958 0.0207187533 0.0207051989
3818.4840762367112 0.0206724294 0.0206203423 0.0205509625 0.0204683933 0.020378029 0.0202864651
3819.2072511384076 0.0201999564 0.0201239791 0.0200612005 0.0200122073 0.019975882 0.0199511796
3819.9304260401041 0.0199398361 0.0199476406 0.0199829582 0.020054955 0.0201670844 0.0203143451
3820.6536009418005 0.0204793345 0.0206408091 0.0207808949 0.0208943952 0.0209901892 0.0210834313
3821.3767758434965 0.0211888328 0.0213093311 0.0214327499 0.0215341635 0.0215869173 0.0215758793
3822.0999507451929 0.0215022713 0.021383984 0.0212445725 0.0211070832 0.0209856331 0.020884417
3822.8231256468894 0.0207985882 0.0207175016 0.0206284393 0.0205210876 0.0203917455 0.0202427227
3823.5463005485858 0.0200818479 0.0199194029 0.0197658967 0.0196306426 0.0195199326 0.0194374919
3824.2694754502822 0.0193847213 0.0193606429 0.019362133 0.0193847213 0.0194234233 0.0194732528
3824.9926503519787 0.0195291527 0.0195872076 0.0196429845 0.0196922496 0.0197309442 0.0197567064
3825.7158252536747 0.0197702665 0.0197780337 0.0197914895 0.0198246781 0.0198914111 0.0199986752
3826.4390001553711 0.0201426502 0.0203057341 0.020460058 0.0205776431 0.0206383411 0.020638898
3827.1621750570675 0.0205919221 0.0205207393 0.0204490833 0.0203938279 0.0203620549 0.0203501433
3827.885349958764 0.0203472618 0.0203404222 0.0203214977 0.020289382 0.0202519577 0.0202211309
3828.6085248604604 0.0202097092 0.0202260949 0.020272024 0.0203423314 0.0204281397 0.0205204282
3829.3316997621569 0.020612143 0.0206984226 0.0207774546 0.020845864 0.0208986364 0.0209283289
3830.0548746638533 0.020926591 0.0208876505 0.0208119694 0.0207088124 0.0205947366 0.0204913877
3830.7780495655493 0.0204218552 0.0204031002 0.0204435252 0.0205399506 0.0206784401 0.0208348092
3831.5012244672457 0.0209802091 0.0210886132 0.0211427379 0.0211385991 0.0210836399 0.0209917203
3832.2243993689422 0.0208775327 0.0207532644 0.0206292719 0.0205138959 0.0204147343 0.0203392413
3832.9475742706386 0.0202927161 0.0202766061 0.0202882718 0.0203197971 0.0203605276 0.0203978922
3833.670749172335 0.0204225834 0.0204293206 0.0204195622 0.020401122 0.0203876477 0.0203955304
3834.3939240740315 0.0204391498 0.0205274448 0.0206582863 0.0208156891 0.0209689774 0.0210816562
3835.1170989757279 0.0211240239 0.0210812036 0.0209576059 0.0207722764 0.020552665 0.0203260127
3835.8402738774239 0.0201174542 0.0199472941 0.0198268965 0.019759411 0.0197387114 0.0197523385
3836.5634487791203 0.0197846908 0.0198225267 0.0198601931 0.0199009832 0.0199579094 0.0200476684
3837.2866236808168 0.0201861057 0.0203783754 0.0206096414 0.0208406486 0.0210176613 0.0210959166
3838.0097985825132 0.0210601967 0.0209297203 0.0207423847 0.0205340795 0.0203271918 0.0201305375
3838.7329734842097 0.0199446585 0.0197680462 0.0196027029 0.0194576588 0.0193473753 0.0192900095
3839.4561483859061 0.019299604 0.0193800796 0.0195203498 0.0196953695 0.019873824 0.0200249758
3840.1793232876021 0.0201296005 0.0201850999 0.020200789 0.0201924238 0.0201734714 0.0201519523
3840.9024981892985 0.0201274846 0.0200957302 0.0200531501 0.0200017281 0.0199496541 0.0199093781
3841.625673090995 0.0198913068 0.0199025441 0.0199430622 0.0200065169 0.0200812593 0.020154139
3842.3488479926914 0.0202140138 0.0202545598 0.0202768147 0.0202888269 0.02030438 0.0203386154
3843.0720228943878 0.0204035863 0.0205042753 0.0206353534 0.0207803734 0.0209139343 0.021011889
3843.7951977960843 0.0210571364 0.0210475363 0.0209938399 0.0209149774 0.0208300464 0.0207512137
3844.5183726977807 0.0206833407 0.020624999 0.0205725357 0.0205231719 0.0204789527 0.0204458181
3845.2415475994767 0.0204328634 0.0204472765 0.0204918738 0.0205633305 0.020652622 0.0207490232
3845.9647225011731 0.0208413098 0.020921167 0.0209842771 0.0210275035 0.0210500062 0.021050632
3846.6878974028696 0.0210302174 0.0209913012 0.02094022 0.0208860505 0.0208371729 0.020799214
3847.411072304566 0.0207711291 0.0207455829 0.020710377 0.0206540469 0.0205707997 0.0204633921
3848.1342472062624 0.020343408 0.0202275533 0.020133974 0.0200761575 0.0200604722 0.0200857352
3848.8574221079589 0.0201461222 0.0202315785 0.0203305259 0.020431336 0.0205210876 0.0205850787
3849.5805970096553 0.0206097458 0.0205831677 0.0204987526 0.0203568451 0.0201644823 0.0199334174
3850.3037719113513 0.0196768902 0.0194086637 0.0191426445 0.0188927781 0.0186760183 0.0185091179
3851.0269468130477 0.0184071288 0.0183793362 0.0184253473 0.0185332187 0.0186785776 0.0188314244
3851.7501217147442 0.0189621709 0.0190523118 0.0191036221 0.0191363078 0.0191767197 0.0192379486
3852.4732966164406 0.0193170626 0.0193996541 0.0194707923 0.0195231903 0.0195620786 0.0196052343
3853.1964715181371 0.0196835119 0.0198343191 0.0200936124 0.0204849616 0.021004308 0.0216041896
3853.9196464198335 0.0221906044 0.0226522274 0.0229041278 0.0229246318 0.0227530543 0.022454273
3854.6428213215295 0.0220918246 0.0217130985 0.0213540867 0.0210421458 0.0207965709 0.0206323992
3855.3659962232259 0.0205553044 0.0205593351 0.0206271876 0.0207311604 0.0208407529 0.0209264513
3856.0891711249224 0.0209692903 0.0209630653 0.0209148731 0.0208402667 0.020758478 0.0206868164
3856.8123460266188 0.0206349716 0.0206033178 0.0205824375 0.0205578059 0.0205130987 0.0204367526
3857.5355209283152 0.0203265678 0.020191174 0.0200478062 0.0199172869 0.019821452 0.0197754335
3858.2586958300117 0.0197842401 0.0198396612 0.0199223179 0.0200063083 0.0200650189 0.0200812928
3858.9818707317081 0.0200519022 0.0199892037 0.0199164543 0.0198613722 0.0198480878 0.0198884271
3859.7050456334041 0.0199803915 0.0201087426 0.0202519223 0.0203862581 0.0204935074 0.0205647536
3860.4282205351005 0.0205998793 0.0206067581 0.0205967855 0.0205841046 0.0205811169 0.0205981415
3861.151395436797 0.020642858 0.0207184404 0.0208228845 0.0209467579 0.0210741088 0.021185251
3861.8745703384934 0.021261273 0.0212911312 0.0212734882 0.0212162491 0.0211318508 0.0210342165
3862.5977452401899 0.0209358744 0.0208460372 0.020773109 0.0207246952 0.0207079444 0.0207295269
3863.3209201418863 0.0207927823 0.0208957158 0.0210294873 0.0211793706 0.0213280879 0.0214592423
3864.0440950435827 0.0215630997 0.0216392931 0.0216967613 0.0217490476 0.0218088981 0.0218820348
3864.7672699452787 0.0219633728 0.0220382791 0.0220885836 0.0221031904 0.0220808424 0.0220314115
3865.4904448469752 0.0219676252 0.0218991097 0.021828061 0.0217506848 0.0216599461 0.021550633
3866.2136197486716 0.0214218888 0.0212782547 0.0211282317 0.0209799316 0.0208385289 0.0207040869
3866.936794650368 0.0205733012 0.0204420332 0.0203099716 0.0201821495 0.0200694595 0.0199842416
3867.6599695520645 0.0199382398 0.0199370254 0.0199795589 0.0200567599 0.0201547295 0.0202578939
3868.3831444537609 0.0203502476 0.0204187986 0.020453807 0.0204488747 0.0204030667 0.0203210469
3869.1063193554569 0.020216167 0.0201072171 0.0200160928 0.0199624896 0.0199585687 0.0200065169
3869.8294942571533 0.0200982634 0.0202184226 0.0203460809 0.0204600934 0.0205462724 0.0205978975
3870.5526691588498 0.0206161737 0.0206063055 0.0205743778 0.0205254294 0.0204624552 0.0203874744
3871.2758440605462 0.0203019157 0.0202078 0.0201088823 0.0200099871 0.0199182928 0.0198416729
3871.9990189622426 0.0197875015 0.0197598618 0.019758407 0.0197762307 0.0198009219 0.0198164582
3872.7221938639391 0.0198092796 0.0197716523 0.0197062213 0.0196260661 0.0195542108 0.0195170231
3873.4453687656355 0.0195367076 0.0196265876 0.0197856277 0.0199983288 0.0202365778 0.0204675607
3874.1685436673315 0.0206623171 0.0208020639 0.0208832361 0.0209150482 0.0209136568 0.0208942555
3874.8917185690279 0.0208672434 0.0208366513 0.0208024457 0.0207622312 0.0207156241 0.0206660014
3875.6148934707244 0.0206205174 0.0205892473 0.0205807704 0.0205998439 0.0206442829 0.0207056515
3876.3380683724208 0.0207709894 0.0208271611 0.0208653659 0.0208822265 0.0208798628 0.0208629668
3877.0612432741173 0.0208354685 0.0207976848 0.0207458958 0.0206743404 0.0205791369 0.0204618294
3877.7844181758137 0.0203314982 0.0202026628 0.0200938899 0.020022478 0.0199994743 0.0200290699
3878.5075930775101 0.0201072171 0.0202244632 0.0203662571 0.0205165371 0.0206597801 0.0207814518
3879.2307679792061 0.0208714157 0.0209255479 0.0209485311 0.0209530164 0.0209581275 0.0209850781
3879.9539428809026 0.0210481286 0.0211472604 0.0212637801 0.0213685296 0.0214311481 0.0214338284
3880.677117782599 0.0213770568 0.0212768968 0.021156583 0.0210376941 0.020935839 0.0208572652
3881.4002926842954 0.0208010897 0.0207630657 0.0207400564 0.0207331404 0.0207466595 0.0207857266
3882.1234675859919 0.020851912 0.0209400114 0.0210383907 0.0211308766 0.0212005228 0.0212361868
3882.8466424876883 0.0212337505 0.0211974271 0.021135781 0.0210601278 0.0209798273 0.0209001321
3883.5698173893843 0.0208234061 0.0207499266 0.0206792746 0.0206117965 0.0205485299 0.0204911102
3884.2929922910807 0.0204410609 0.0204004608 0.0203713253 0.0203574356 0.0203629918 0.0203929264
3885.0161671927772 0.0204514451 0.0205404367 0.020657314 0.0207922272 0.0209294762 0.0210472941
3885.7393420944736 0.0211244412 0.0211484078 0.0211176574 0.0210418329 0.0209365692 0.0208189581
3886.4625169961701 0.0207049213 0.0206064451 0.0205321684 0.0204859693 0.0204663444 0.0204665884
3887.1856918978665 0.0204757918 0.0204818007 0.0204734299 0.0204429012 0.0203879252 0.0203107353
3887.9088667995629 0.0202166177 0.0201134626 0.0200096741 0.0199140273 0.0198348742 0.0197803918
3888.6320417012589 0.01975636 0.0197655503 0.0198059157 0.0198702179 0.019947052 0.0200229287
3889.3552166029554 0.0200873315 0.0201337654 0.0201623645 0.0201782957 0.0201898199 0.0202041212
3890.0783915046518 0.0202244986 0.0202491451 0.0202732384 0.0202907361 0.0202985834 0.0202988256
3890.8015664063482 0.0202995557 0.0203129221 0.0203490332 0.0204110183 0.0204901025 0.0205680896
3891.5247413080447 0.0206241645 0.0206438322 0.0206246506 0.0205754898 0.0205131676 0.0204555783
3892.2479162097411 0.0204197355 0.0204151869 0.0204424839 0.0204927772 0.0205505807 0.0205989052
3892.9710911114371 0.0206232611 0.0206162427 0.0205792412 0.0205201488 0.0204500556 0.0203802511
3893.6942660131335 0.0203195196 0.0202732384 0.020243695 0.0202316828 0.0202371329 0.0202589706
3894.41744091483 0.0202954225 0.0203415677 0.0203909464 0.0204347391 0.0204643998 0.0204718318
3895.1406158165264 0.0204520002 0.02040199 0.0203220192 0.0202148482 0.0200849716 0.0199409798
3895.8637907182228 0.0197940543 0.0196587574 0.019552825 0.0194925889 0.0194913428 0.0195544884
3896.5869656199193 0.0196787268 0.0198515225 0.0200539138 0.0202666763 0.0204713121 0.0206543952
3897.3101405216157 0.0208086688 0.0209301729 0.0210170355 0.0210670475 0.0210770648 0.0210442673
3898.0333154233117 0.0209685955 0.0208559092 0.0207181275 0.0205741692 0.0204475205 0.0203609783
3898.7564903250081 0.0203348305 0.0203817785 0.0205019135 0.02067931 0.0208810456 0.02106677
3899.4796652267046 0.0211987142 0.0212552194 0.021236429 0.0211585313 0.0210465286 0.0209245738
3900.202840128401 0.0208150297 0.0207331404 0.0206869543 0.0206786487 0.0207042266 0.0207562875
3900.9260150300975 0.0208243448 0.0208988115 0.0209699515 0.0210292786 0.0210693795 0.0210843347
3901.6491899317939 0.0210700054 0.0210260097 0.0209547561 0.02086116 0.0207496844 0.0206239913
3902.3723648334903 0.0204862133 0.0203381293 0.0201834328 0.0200276468 0.0198786464 0.0197464786
3903.0955397351863 0.0196402799 0.0195684209 0.0195375737 0.0195532404 0.019620277 0.0197426975
3903.8187146368828 0.0199207217 0.0201461911 0.0203973353 0.0206410512 0.0208405796 0.0209680386
3904.5418895385792 0.0210148804 0.0209904667 0.0209162645 0.0208167322 0.0207155552 0.0206312183
3905.2650644402756 0.0205756631 0.0205555819 0.0205731615 0.0206259023 0.0207066927 0.020804774
3905.9882393419721 0.0209032614 0.0209813565 0.021019645 0.0210041683 0.0209327806 0.0208166633
3906.7114142436685 0.0206795186 0.0205516573 0.0204599891 0.0204225834 0.0204416849 0.0205049347
3907.4345891453645 0.0205878578 0.0206636023 0.0207131226 0.0207287967 0.0207162499 0.0206890404
3908.1577640470609 0.0206627697 0.0206461251 0.0206383765 0.0206301752 0.020608183 0.0205612108
3908.8809389487574 0.020484753 0.0203819871 0.0202638637 0.0201450456 0.0200388897 0.0199561063
3909.6041138504538 0.0199036542 0.0198844727 0.0198998395 0.0199499652 0.0200340319 0.0201486554
3910.3272887521503 0.0202879589 0.0204432476 0.0206027627 0.0207543764 0.0208874419 0.0209930763
3911.0504636538467 0.021066526 0.0211060736 0.0211129263 0.0210902132 0.0210428424 0.0209762454
3911.7736385555431 0.0208958909 0.0208072774 0.0207157638 0.0206245128 0.0205369629 0.020454431
3912.4968134572391 0.0203781668 0.0203082357 0.0202458128 0.0201927014 0.0201516747 0.0201265477
3913.2199883589356 0.020120509 0.0201348774 0.0201676413 0.0202125572 0.0202594213 0.0202954579
3913.943163260632 0.0203094855 0.0202936865 0.0202472713 0.0201779138 0.0201007966 0.020033095
3914.6663381623284 0.0199924298 0.019990487 0.0200308748 0.0201086048 0.0202120002 0.0203268807
3915.3895130640249 0.0204380732 0.0205338709 0.0206063408 0.0206519961 0.0206707269 0.0206660014
3916.1126879657213 0.0206450131 0.0206171814 0.0205943547 0.0205870587 0.0206016507 0.0206375066
3916.8358628674177 0.0206860155 0.0207334887 0.0207634475 0.0207641069 0.0207332093 0.0206786487
3917.5590377691137 0.0206161048 0.020560585 0.0205226149 0.0205038581 0.0204984732 0.0204967018
3918.2822126708102 0.0204891656 0.0204720069 0.0204469636 0.0204210207 0.020402927 0.0203990731
3919.0053875725066 0.0204096641 0.020429356 0.0204479359 0.0204558205 0.0204463396 0.0204179641
3919.728562474203 0.0203744508 0.0203230605 0.0202712938 0.0202245321 0.0201859679 0.0201571584
3920.4517373758995 0.0201392155 0.0201335922 0.0201415755 0.0201625042 0.0201924238 0.0202234909
3921.1749122775959 0.0202458818 0.0202495959 0.0202289056 0.0201846138 0.0201242566 0.0200605411
3921.8980871792919 0.0200058222 0.0199696012 0.0199538171 0.0199538171 0.0199599229 0.0199616924
3922.6212620809883 0.0199514236 0.0199263413 0.0198896416 0.0198489204 0.0198134072 0.0197922513
3923.3444369826848 0.0197925642 0.0198179148 0.0198682752 0.0199396629 0.0200241078 0.0201108959
3924.0676118843812 0.0201869737 0.0202411599 0.0202672314 0.0202667452 0.0202493537 0.0202323422
3924.7907867860777 0.0202350859 0.0202713292 0.0203444157 0.0204433519 0.0205469672 0.0206292719
3925.5139616877741 0.0206696149 0.0206602663 0.0206071753 0.0205276869 0.0204437692 0.020376673
3926.2371365894705 0.020339936 0.0203370191 0.0203614999 0.0204015039 0.0204435252 0.0204774942
3926.9603114911665 0.0204986818 0.0205083042 0.0205109101 0.0205111876 0.0205128901 0.0205156691
3927.683486392863 0.0205172319 0.0205126461 0.0204967372 0.020466866 0.0204233471 0.0203711521
3928.4066612945594 0.0203184076 0.0202765018 0.0202554278 0.0202614348 0.0202940684 0.0203453526
3929.1298361962558 0.0204021633 0.0204486661 0.0204735696 0.0204745419 0.0204595719 0.0204443242
3929.8530110979523 0.0204472765 0.0204825308 0.0205531158 0.0206495989 0.0207501352 0.0208285861
3930.5761859996487 0.0208593868 0.020826675 0.0207291786 0.0205807351 0.0204071645 0.0202377588
3931.2993609013452 0.0201030876 0.0200260859 0.0200188681 0.0200816058 0.0202034619 0.0203627143
3932.0225358030411 0.0205307435 0.020679066 0.0207841285 0.0208329316 0.0208255276 0.0207738392
3932.7457107047376 0.0206966493 0.0206132196 0.0205399152 0.0204870813 0.0204586349 0.0204537027
3933.468885606434 0.0204667263 0.0204897895 0.0205122642 0.0205229633 0.0205126107 0.0204750281
3934.1920605081305 0.0204101857 0.0203245878 0.020231232 0.0201452877 0.0200812239 0.0200492647
3934.9152354098269 0.0200532898 0.0200899336 0.0201511886 0.0202272739 0.0203082357 0.0203857366
3935.6384103115233 0.0204541534 0.0205084775 0.020544501 0.0205592308 0.0205512401 0.0205215737
3936.3615852132193 0.0204736385 0.0204124432 0.0203428529 0.0202673022 0.0201864876 0.020099964
3937.0847601149158 0.0200092569 0.0199199244 0.0198422968 0.0197881944 0.0197678041 0.0197832007
3937.8079350166122 0.0198260657 0.0198778473 0.0199170094 0.019924121 0.019890856 0.0198228396
3938.5311099183086 0.0197387449 0.0196639579 0.0196206253 0.0196228083 0.0196704417 0.0197517145
3939.2542848200051 0.0198460761 0.0199327599 0.0199958645 0.0200273357 0.0200287569 0.0200086329
3939.9774597217015 0.0199800096 0.0199550316 0.0199432354 0.0199482664 0.0199668612 0.0199894458
3940.7006346233979 0.0200029779 0.0199962128 0.0199640151 0.0199116338 0.019853672 0.0198125746
3941.4238095250939 0.0198103189 0.0198600553 0.0199612752 0.0200985409 0.02024661 0.0203777496
3942.1469844267904 0.020472493 0.0205254294 0.0205465853 0.0205550957 0.0205704868 0.0206029713
3942.8701593284868 0.0206484534 0.0206907764 0.0207090918 0.0206889361 0.0206253454 0.0205251519
3943.5933342301832 0.0204020943 0.0202736557 0.0201542433 0.0200523529 0.0199703295 0.019906396
3944.3165091318797 0.0198571067 0.0198200308 0.0197950266 0.0197840333 0.0197898243 0.0198151395
3945.0396840335761 0.0198609568 0.0199263413 0.0200068634 0.0200954862 0.0201820806 0.020255845
3945.7628589352726 0.020308096 0.0203355607 0.02034254 0.0203407686 0.020346567 0.020373445
3946.4860338369685 0.0204272382 0.020502504 0.0205835849 0.0206481405 0.0206767377 0.0206600931
3947.209208738665 0.0206032488 0.0205238666 0.0204451587 0.0203887932 0.0203651097 0.0203712564
3947.9323836403614 0.0203932375 0.0204141103 0.0204189364 0.0204007402 0.0203614999 0.0203093458
3948.6555585420579 0.020254977 0.0202064477 0.0201691687 0.0201447681 0.0201334544 0.0201353971
3949.3787334437543 0.0201513972 0.0201824959 0.0202283859 0.0202868134 0.0203525051 0.0204187278
3950.1019083454507 0.0204773899 0.0205223728 0.0205481146 0.020551797 0.0205325168 0.0204922557
3950.8250832471467 0.020435676 0.0203704238 0.0203061178 0.0202519223 0.0202147439 0.0201974921
3951.5482581488432 0.020198185 0.0202127304 0.0202366821 0.0202683434 0.0203093458 0.0203624014
3952.2714330505396 0.020428801 0.0205042046 0.0205778871 0.0206343457 0.0206570346 0.0206356999
3952.994607952236 0.0205693059 0.0204682555 0.0203506649 0.0202369262 0.0201450456 0.0200848673
3953.7177828539325 0.0200590491 0.0200635958 0.0200927798 0.0201393533 0.0201962069 0.0202558096
3954.4409577556289 0.020308027 0.0203407351 0.0203431305 0.0203074366 0.0202336963 0.0201309547
3955.1641326573254 0.0200163014 0.0199091006 0.0198261347 0.0197777562 0.0197652727 0.0197836868
3955.8873075590213 0.0198250245 0.0198827032 0.0199537463 0.0200383682 0.0201358832 0.0202431399
3956.6104824607178 0.0203506649 0.0204451587 0.0205116384 0.0205392204 0.0205249786 0.0204757918
3957.3336573624142 0.0204064697 0.020334553 0.0202769879 0.020243451 0.0202353988 0.0202457085
3958.0568322641107 0.0202629268 0.0202740021 0.0202686209 0.0202427581 0.0201983936 0.0201432761
3958.7800071658071 0.0200880952 0.0200433303 0.0200173073 0.0200136304 0.0200313944 0.0200659558
3959.5031820675035 0.0201110337 0.0201596227 0.0202061348 0.0202475823 0.0202825777 0.0203122627
3960.2263569692 0.0203382 0.020361986 0.0203842446 0.0204036217 0.0204160884 0.0204154998
3960.949531870896 0.0203950796 0.0203492418 0.0202770922 0.0201843716 0.0200850405 0.0199975297
3961.6727067725924 0.0199421253 0.0199339725 0.0199769214 0.0200620349 0.0201700013 0.0202785842
3962.3958816742888 0.0203689653 0.020433072 0.0204740558 0.0205046572 0.0205379352 0.0205807351
3963.1190565759853 0.0206290297 0.020668989 0.0206819512 0.0206527617 0.0205785111 0.0204709992
3963.8422314776817 0.0203547627 0.0202572681 0.0202013105 0.0201961379 0.0202352945 0.0202986877
3964.5654063793781 0.0203597974 0.0203965716 0.020393759 0.0203482695 0.0202661213 0.0201598313
3965.2885812810741 0.020043401 0.0199293941 0.0198287349 0.0197501183 0.0196997039 0.0196814667
3966.0117561827706 0.019695092 0.0197369084 0.0197991189 0.019873824 0.0199549962 0.0200419426
3966.734931084467 0.0201380346 0.0202505328 0.0203845911 0.0205395333 0.0207065549 0.0208684243
3967.4581059861634 0.0210054554 0.0210992228 0.0211394336 0.0211261809 0.021069726 0.020986747
3968.1812808878599 0.020893978 0.0208049826 0.0207251124 0.0206530038 0.0205813255 0.020501947
3968.9044557895563 0.0204084497 0.0202995893 0.020180067 0.0200596396 0.0199519787 0.0198700782
3969.6276306912528 0.0198248867 0.0198217984 0.0198594648 0.019929776 0.0200177934 0.0201070439
3970.3508055929487 0.0201785043 0.0202173125 0.0202137362 0.0201653149 0.0200767815 0.0199598521
3971.0739804946452 0.0198325496 0.0197145436 0.0196262412 0.0195848513 0.0195996519 0.0196699221
3971.7971553963416 0.0197834782 0.0199192651 0.0200504791 0.0201513283 0.0202053022 0.0202079043
3972.5203302980381 0.0201685075 0.0201068688 0.0200466625 0.0200080778 0.0200016238 0.020026572
3973.2435051997345 0.0200725831 0.0201259926 0.0201734025 0.020208599 0.0202319603 0.0202493872
3973.9666801014309 0.0202671979 0.0202879589 0.0203082003 0.0203196239 0.0203121938 0.0202794187
3974.6898550031274 0.0202231444 0.0201538615 0.0200899001 0.020049924 0.0200496465 0.0200948622
3975.4130299048234 0.0201802049 0.0202904586 0.0204053931 0.0205066372 0.0205811169 0.0206248946
3976.1362048065198 0.0206417814 0.0206408426 0.0206317045 0.0206218716 0.0206162427 0.0206167288
3976.8593797082162 0.020624999 0.0206431709 0.0206738878 0.0207177792 0.020770954 0.0208240673
3977.5825546099127 0.0208619237 0.0208668597 0.0208258741 0.0207336266 0.0205968898 0.0204326212
3978.3057295116091 0.0202649757 0.020117281 0.0200061351 0.0199391078 0.019913679 0.0199213121
3979.0289044133056 0.0199516304 0.0199961085 0.0200493 0.0201072507 0.0201655235 0.0202163402
3979.7520793150015 0.0202491097 0.0202538315 0.0202234909 0.0201587901 0.0200684536 0.0199685954
3980.475254216698 0.0198772922 0.0198093131 0.0197723117 0.019764822 0.0197780672 0.0197981466
3981.1984291183944 0.0198119152 0.0198109094 0.0197923202 0.019760279 0.0197234545 0.019693289
3981.9216040200909 0.0196799412 0.0196905509 0.0197278224 0.0197888184 0.0198669229 0.0199524984
3982.6447789217873 0.0200364608 0.0201109294 0.0201708339 0.0202141181 0.020240467 0.0202505682
3983.3679538234837 0.0202457774 0.0202282816 0.0202024207 0.0201748256 0.0201550424 0.0201525073
3984.0911287251802 0.0201735068 0.0202185623 0.0202808417 0.0203467067 0.0203995928 0.020426264
3984.8143036268762 0.0204191115 0.020379208 0.0203144848 0.020235572 0.0201525073 0.0200704671
3985.5374785285726 0.0199915972 0.0199162811 0.0198464245 0.0197868757 0.0197440851 0.0197228994
3986.260653430269 0.019722309 0.0197344795 0.0197465122 0.0197448824 0.0197225865 0.019683199
3986.9838283319655 0.019641459 0.0196170546 0.0196282864 0.0196850374 0.0197831653 0.0199072976
3987.7070032336619 0.0200352464 0.0201473366 0.0202308502 0.0202834457 0.020310387 0.0203210115
3988.4301781353583 0.0203233734 0.0203215331 0.0203158036 0.0203052498 0.0202892777 0.0202696975
3989.1533530370548 0.0202490762 0.0202297401 0.0202115849 0.0201932918 0.0201721527 0.0201478563
3989.8765279387508 0.0201226249 0.0201009698 0.020087054 0.0200823694 0.0200834796 0.0200839993
3990.5997028404472 0.0200771298 0.020059986 0.0200362876 0.0200155377 0.0200102292 0.0200310126
3991.3228777421436 0.0200826116 0.0201623309 0.0202621985 0.0203722287 0.0204831567 0.0205890033
3992.0460526438401 0.0206858777 0.0207700171 0.0208364073 0.0208788887 0.0208924823 0.0208755173
3992.7692275455365 0.0208325833 0.0207731798 0.020707909 0.0206449442 0.0205865726 0.0205293894
3993.492402447233 0.0204675961 0.0203990731 0.0203286167 0.0202698018 0.0202401541 0.0202543866
3994.2155773489289 0.0203182697 0.0204245988 0.0205551665 0.0206845216 0.020790454 0.0208581351
3994.9387522506254 0.0208832007 0.0208695382 0.0208248664 0.0207565315 0.0206689537 0.0205655191
3995.6619271523218 0.0204504728 0.0203318801 0.020220818 0.0201285947 0.0200617909 0.0200200491
3996.3851020540183 0.0199944433 0.019972967 0.0199443456 0.0199047308 0.0198596381 0.01982232
3997.1082769557147 0.0198077876 0.0198265165 0.0198803805 0.019961033 0.0200542267 0.0201435536
3997.8314518574111 0.0202177279 0.0202726834 0.0203116722 0.0203414988 0.0203694515 0.0203988291
3998.5546267591076 0.0204268899 0.0204465818 0.0204480756 0.0204231739 0.020367749 0.020285286
3999.2778016608036 0.0201857947 0.0200863257 0.0200062394 0.0199617948 0.0199630447 0.0200084951
4000.0009765625 0.0200849716
##END=
